LAMMPS data file: point2

10473 atoms
3 atom types

0	251.955 xlo xhi
0	101.624 ylo yhi
-10	10 zlo zhi

Masses

1    12.001
2    12.001
3    1.008

Atoms

1 1 0.000 1.230 0.000
2 1 0.710 0.000 0.000
3 1 2.130 0.000 0.000
4 1 2.840 1.230 0.000
5 1 4.261 1.230 0.000
6 1 4.971 0.000 0.000
7 1 6.391 0.000 0.000
8 1 7.101 1.230 0.000
9 1 8.521 1.230 0.000
10 2 8.521 1.230 1.500
11 3 9.621 1.230 1.633
12 3 7.971 2.183 1.633
13 3 7.971 0.277 1.633
14 1 9.231 0.000 0.000
15 1 10.652 0.000 0.000
16 1 11.362 1.230 0.000
17 1 12.782 1.230 0.000
18 1 13.492 0.000 0.000
19 1 14.912 0.000 0.000
20 1 15.622 1.230 0.000
21 1 17.042 1.230 0.000
22 1 17.753 0.000 0.000
23 1 19.173 0.000 0.000
24 1 19.883 1.230 0.000
25 1 21.303 1.230 0.000
26 1 22.013 0.000 0.000
27 1 23.433 0.000 0.000
28 1 24.143 1.230 0.000
29 1 25.564 1.230 0.000
30 1 26.274 0.000 0.000
31 1 27.694 0.000 0.000
32 1 28.404 1.230 0.000
33 1 29.824 1.230 0.000
34 1 30.534 0.000 0.000
35 1 31.954 0.000 0.000
36 1 32.665 1.230 0.000
37 1 34.085 1.230 0.000
38 1 34.795 0.000 0.000
39 1 36.215 0.000 0.000
40 1 36.925 1.230 0.000
41 1 38.345 1.230 0.000
42 1 39.055 0.000 0.000
43 1 40.476 0.000 0.000
44 1 41.186 1.230 0.000
45 3 41.186 1.230 1.100
46 1 42.606 1.230 0.000
47 1 43.316 0.000 0.000
48 1 44.736 0.000 0.000
49 1 45.446 1.230 0.000
50 1 46.867 1.230 0.000
51 1 47.577 0.000 0.000
52 3 47.577 0.000 1.100
53 1 48.997 0.000 0.000
54 1 49.707 1.230 0.000
55 2 49.707 1.230 1.500
56 3 50.807 1.230 1.633
57 3 49.157 2.183 1.633
58 3 49.157 0.277 1.633
59 1 51.127 1.230 0.000
60 1 51.837 0.000 0.000
61 1 53.258 0.000 0.000
62 1 53.968 1.230 0.000
63 3 53.968 1.230 1.100
64 1 55.388 1.230 0.000
65 1 56.098 0.000 0.000
66 1 57.518 0.000 0.000
67 1 58.228 1.230 0.000
68 1 59.648 1.230 0.000
69 1 60.358 0.000 0.000
70 1 61.779 0.000 0.000
71 1 62.489 1.230 0.000
72 1 63.909 1.230 0.000
73 1 64.619 0.000 0.000
74 1 66.039 0.000 0.000
75 1 66.749 1.230 0.000
76 1 68.170 1.230 0.000
77 1 68.880 0.000 0.000
78 1 70.300 0.000 0.000
79 1 71.010 1.230 0.000
80 1 72.430 1.230 0.000
81 1 73.140 0.000 0.000
82 1 74.561 0.000 0.000
83 1 75.271 1.230 0.000
84 1 76.691 1.230 0.000
85 1 77.401 0.000 0.000
86 1 78.821 0.000 0.000
87 1 79.531 1.230 0.000
88 1 80.951 1.230 0.000
89 1 81.662 0.000 0.000
90 1 83.082 0.000 0.000
91 1 83.792 1.230 0.000
92 1 85.212 1.230 0.000
93 1 85.922 0.000 0.000
94 1 87.342 0.000 0.000
95 1 88.052 1.230 0.000
96 1 89.473 1.230 0.000
97 1 90.183 0.000 0.000
98 1 91.603 0.000 0.000
99 1 92.313 1.230 0.000
100 1 93.733 1.230 0.000
101 1 94.443 0.000 0.000
102 1 95.864 0.000 0.000
103 1 96.574 1.230 0.000
104 1 97.994 1.230 0.000
105 1 98.704 0.000 0.000
106 1 100.124 0.000 0.000
107 1 100.834 1.230 0.000
108 1 102.254 1.230 0.000
109 1 102.965 0.000 0.000
110 1 104.385 0.000 0.000
111 1 105.095 1.230 0.000
112 1 106.515 1.230 0.000
113 1 107.225 0.000 0.000
114 1 108.645 0.000 0.000
115 1 109.355 1.230 0.000
116 1 110.776 1.230 0.000
117 1 111.486 0.000 0.000
118 3 111.486 0.000 -1.100
119 1 112.906 0.000 0.000
120 1 113.616 1.230 0.000
121 1 115.036 1.230 0.000
122 1 115.746 0.000 0.000
123 1 117.167 0.000 0.000
124 1 117.877 1.230 0.000
125 1 119.297 1.230 0.000
126 1 120.007 0.000 0.000
127 1 121.427 0.000 0.000
128 1 122.137 1.230 0.000
129 1 123.557 1.230 0.000
130 1 124.267 0.000 0.000
131 1 125.688 0.000 0.000
132 1 126.398 1.230 0.000
133 1 127.818 1.230 0.000
134 1 128.528 0.000 0.000
135 1 129.948 0.000 0.000
136 1 130.658 1.230 0.000
137 2 130.658 1.230 -1.500
138 3 131.758 1.230 -1.633
139 3 129.558 1.230 -1.633
140 2 130.658 1.230 -3.040
141 3 131.758 1.230 -3.173
142 3 130.108 2.183 -3.173
143 3 130.108 0.277 -3.173
144 1 132.079 1.230 0.000
145 1 132.789 0.000 0.000
146 1 134.209 0.000 0.000
147 1 134.919 1.230 0.000
148 1 136.339 1.230 0.000
149 1 137.049 0.000 0.000
150 1 138.470 0.000 0.000
151 1 139.180 1.230 0.000
152 1 140.600 1.230 0.000
153 1 141.310 0.000 0.000
154 1 142.730 0.000 0.000
155 3 142.730 0.000 -1.100
156 1 143.440 1.230 0.000
157 1 144.860 1.230 0.000
158 1 145.571 0.000 0.000
159 1 146.991 0.000 0.000
160 1 147.701 1.230 0.000
161 1 149.121 1.230 0.000
162 1 149.831 0.000 0.000
163 1 151.251 0.000 0.000
164 1 151.961 1.230 0.000
165 1 153.382 1.230 0.000
166 1 154.092 0.000 0.000
167 1 155.512 0.000 0.000
168 1 156.222 1.230 0.000
169 1 157.642 1.230 0.000
170 1 158.352 0.000 0.000
171 2 158.352 0.000 -1.500
172 3 159.452 0.000 -1.633
173 3 157.802 0.953 -1.633
174 3 157.802 -0.953 -1.633
175 1 159.773 0.000 0.000
176 1 160.483 1.230 0.000
177 1 161.903 1.230 0.000
178 1 162.613 0.000 0.000
179 3 162.613 0.000 -1.100
180 1 164.033 0.000 0.000
181 1 164.743 1.230 0.000
182 1 166.163 1.230 0.000
183 1 166.874 0.000 0.000
184 1 168.294 0.000 0.000
185 1 169.004 1.230 0.000
186 1 170.424 1.230 0.000
187 1 171.134 0.000 0.000
188 1 172.554 0.000 0.000
189 1 173.264 1.230 0.000
190 1 174.685 1.230 0.000
191 1 175.395 0.000 0.000
192 1 176.815 0.000 0.000
193 1 177.525 1.230 0.000
194 1 178.945 1.230 0.000
195 2 178.945 1.230 -1.500
196 3 180.045 1.230 -1.633
197 3 178.395 2.183 -1.633
198 3 178.395 0.277 -1.633
199 1 179.655 0.000 0.000
200 1 181.076 0.000 0.000
201 1 181.786 1.230 0.000
202 1 183.206 1.230 0.000
203 1 183.916 0.000 0.000
204 1 185.336 0.000 0.000
205 1 186.046 1.230 0.000
206 1 187.466 1.230 0.000
207 1 188.177 0.000 0.000
208 1 189.597 0.000 0.000
209 1 190.307 1.230 0.000
210 1 191.727 1.230 0.000
211 1 192.437 0.000 0.000
212 1 193.857 0.000 0.000
213 1 194.567 1.230 0.000
214 1 195.988 1.230 0.000
215 1 196.698 0.000 0.000
216 1 198.118 0.000 0.000
217 1 198.828 1.230 0.000
218 1 200.248 1.230 0.000
219 1 200.958 0.000 0.000
220 1 202.379 0.000 0.000
221 1 203.089 1.230 0.000
222 1 204.509 1.230 0.000
223 3 204.509 1.230 1.100
224 1 205.219 0.000 0.000
225 1 206.639 0.000 0.000
226 1 207.349 1.230 0.000
227 1 208.769 1.230 0.000
228 1 209.480 0.000 0.000
229 1 210.900 0.000 0.000
230 1 211.610 1.230 0.000
231 1 213.030 1.230 0.000
232 1 213.740 0.000 0.000
233 1 215.160 0.000 0.000
234 1 215.870 1.230 0.000
235 1 217.291 1.230 0.000
236 1 218.001 0.000 0.000
237 1 219.421 0.000 0.000
238 1 220.131 1.230 0.000
239 1 221.551 1.230 0.000
240 1 222.261 0.000 0.000
241 1 223.681 0.000 0.000
242 1 224.392 1.230 0.000
243 1 225.812 1.230 0.000
244 1 226.522 0.000 0.000
245 1 227.942 0.000 0.000
246 1 228.652 1.230 0.000
247 1 230.072 1.230 0.000
248 1 230.783 0.000 0.000
249 1 232.203 0.000 0.000
250 1 232.913 1.230 0.000
251 1 234.333 1.230 0.000
252 1 235.043 0.000 0.000
253 1 236.463 0.000 0.000
254 1 237.173 1.230 0.000
255 1 238.594 1.230 0.000
256 1 239.304 0.000 0.000
257 1 240.724 0.000 0.000
258 1 241.434 1.230 0.000
259 1 242.854 1.230 0.000
260 1 243.564 0.000 0.000
261 1 244.985 0.000 0.000
262 1 245.695 1.230 0.000
263 1 247.115 1.230 0.000
264 1 247.825 0.000 0.000
265 1 249.245 0.000 0.000
266 1 249.955 1.230 0.000
267 1 0.000 3.690 0.000
268 1 0.710 2.460 0.000
269 1 2.130 2.460 0.000
270 1 2.840 3.690 0.000
271 1 4.261 3.690 0.000
272 1 4.971 2.460 0.000
273 1 6.391 2.460 0.000
274 1 7.101 3.690 0.000
275 1 8.521 3.690 0.000
276 1 9.231 2.460 0.000
277 1 10.652 2.460 0.000
278 1 11.362 3.690 0.000
279 1 12.782 3.690 0.000
280 1 13.492 2.460 0.000
281 1 14.912 2.460 0.000
282 1 15.622 3.690 0.000
283 1 17.042 3.690 0.000
284 1 17.753 2.460 0.000
285 1 19.173 2.460 0.000
286 1 19.883 3.690 0.000
287 1 21.303 3.690 0.000
288 1 22.013 2.460 0.000
289 1 23.433 2.460 0.000
290 1 24.143 3.690 0.000
291 1 25.564 3.690 0.000
292 1 26.274 2.460 0.000
293 1 27.694 2.460 0.000
294 1 28.404 3.690 0.000
295 1 29.824 3.690 0.000
296 1 30.534 2.460 0.000
297 1 31.954 2.460 0.000
298 1 32.665 3.690 0.000
299 1 34.085 3.690 0.000
300 1 34.795 2.460 0.000
301 1 36.215 2.460 0.000
302 1 36.925 3.690 0.000
303 1 38.345 3.690 0.000
304 1 39.055 2.460 0.000
305 1 40.476 2.460 0.000
306 1 41.186 3.690 0.000
307 1 42.606 3.690 0.000
308 1 43.316 2.460 0.000
309 1 44.736 2.460 0.000
310 1 45.446 3.690 0.000
311 1 46.867 3.690 0.000
312 1 47.577 2.460 0.000
313 1 48.997 2.460 0.000
314 1 49.707 3.690 0.000
315 1 51.127 3.690 0.000
316 1 51.837 2.460 0.000
317 1 53.258 2.460 0.000
318 1 53.968 3.690 0.000
319 1 55.388 3.690 0.000
320 1 56.098 2.460 0.000
321 1 57.518 2.460 0.000
322 1 58.228 3.690 0.000
323 1 59.648 3.690 0.000
324 1 60.358 2.460 0.000
325 1 61.779 2.460 0.000
326 1 62.489 3.690 0.000
327 1 63.909 3.690 0.000
328 1 64.619 2.460 0.000
329 1 66.039 2.460 0.000
330 1 66.749 3.690 0.000
331 1 68.170 3.690 0.000
332 1 68.880 2.460 0.000
333 1 70.300 2.460 0.000
334 1 71.010 3.690 0.000
335 1 72.430 3.690 0.000
336 1 73.140 2.460 0.000
337 1 74.561 2.460 0.000
338 1 75.271 3.690 0.000
339 1 76.691 3.690 0.000
340 1 77.401 2.460 0.000
341 1 78.821 2.460 0.000
342 1 79.531 3.690 0.000
343 1 80.951 3.690 0.000
344 1 81.662 2.460 0.000
345 1 83.082 2.460 0.000
346 1 83.792 3.690 0.000
347 1 85.212 3.690 0.000
348 1 85.922 2.460 0.000
349 1 87.342 2.460 0.000
350 1 88.052 3.690 0.000
351 1 89.473 3.690 0.000
352 1 90.183 2.460 0.000
353 1 91.603 2.460 0.000
354 1 92.313 3.690 0.000
355 1 93.733 3.690 0.000
356 1 94.443 2.460 0.000
357 1 95.864 2.460 0.000
358 1 96.574 3.690 0.000
359 1 97.994 3.690 0.000
360 1 98.704 2.460 0.000
361 1 100.124 2.460 0.000
362 1 100.834 3.690 0.000
363 1 102.254 3.690 0.000
364 1 102.965 2.460 0.000
365 1 104.385 2.460 0.000
366 1 105.095 3.690 0.000
367 1 106.515 3.690 0.000
368 1 107.225 2.460 0.000
369 1 108.645 2.460 0.000
370 1 109.355 3.690 0.000
371 1 110.776 3.690 0.000
372 1 111.486 2.460 0.000
373 1 112.906 2.460 0.000
374 1 113.616 3.690 0.000
375 1 115.036 3.690 0.000
376 1 115.746 2.460 0.000
377 1 117.167 2.460 0.000
378 1 117.877 3.690 0.000
379 1 119.297 3.690 0.000
380 1 120.007 2.460 0.000
381 1 121.427 2.460 0.000
382 1 122.137 3.690 0.000
383 1 123.557 3.690 0.000
384 1 124.267 2.460 0.000
385 1 125.688 2.460 0.000
386 1 126.398 3.690 0.000
387 1 127.818 3.690 0.000
388 1 128.528 2.460 0.000
389 3 128.528 2.460 1.100
390 1 129.948 2.460 0.000
391 1 130.658 3.690 0.000
392 1 132.079 3.690 0.000
393 1 132.789 2.460 0.000
394 1 134.209 2.460 0.000
395 1 134.919 3.690 0.000
396 3 134.919 3.690 -1.100
397 1 136.339 3.690 0.000
398 1 137.049 2.460 0.000
399 1 138.470 2.460 0.000
400 1 139.180 3.690 0.000
401 1 140.600 3.690 0.000
402 1 141.310 2.460 0.000
403 1 142.730 2.460 0.000
404 1 143.440 3.690 0.000
405 1 144.860 3.690 0.000
406 1 145.571 2.460 0.000
407 1 146.991 2.460 0.000
408 3 146.991 2.460 -1.100
409 1 147.701 3.690 0.000
410 1 149.121 3.690 0.000
411 1 149.831 2.460 0.000
412 1 151.251 2.460 0.000
413 1 151.961 3.690 0.000
414 1 153.382 3.690 0.000
415 1 154.092 2.460 0.000
416 1 155.512 2.460 0.000
417 1 156.222 3.690 0.000
418 1 157.642 3.690 0.000
419 1 158.352 2.460 0.000
420 1 159.773 2.460 0.000
421 1 160.483 3.690 0.000
422 1 161.903 3.690 0.000
423 1 162.613 2.460 0.000
424 1 164.033 2.460 0.000
425 1 164.743 3.690 0.000
426 1 166.163 3.690 0.000
427 1 166.874 2.460 0.000
428 1 168.294 2.460 0.000
429 1 169.004 3.690 0.000
430 1 170.424 3.690 0.000
431 1 171.134 2.460 0.000
432 1 172.554 2.460 0.000
433 1 173.264 3.690 0.000
434 1 174.685 3.690 0.000
435 1 175.395 2.460 0.000
436 1 176.815 2.460 0.000
437 1 177.525 3.690 0.000
438 1 178.945 3.690 0.000
439 1 179.655 2.460 0.000
440 3 179.655 2.460 -1.100
441 1 181.076 2.460 0.000
442 1 181.786 3.690 0.000
443 1 183.206 3.690 0.000
444 1 183.916 2.460 0.000
445 1 185.336 2.460 0.000
446 1 186.046 3.690 0.000
447 1 187.466 3.690 0.000
448 1 188.177 2.460 0.000
449 1 189.597 2.460 0.000
450 1 190.307 3.690 0.000
451 1 191.727 3.690 0.000
452 1 192.437 2.460 0.000
453 1 193.857 2.460 0.000
454 1 194.567 3.690 0.000
455 1 195.988 3.690 0.000
456 1 196.698 2.460 0.000
457 1 198.118 2.460 0.000
458 1 198.828 3.690 0.000
459 1 200.248 3.690 0.000
460 1 200.958 2.460 0.000
461 1 202.379 2.460 0.000
462 1 203.089 3.690 0.000
463 1 204.509 3.690 0.000
464 1 205.219 2.460 0.000
465 1 206.639 2.460 0.000
466 1 207.349 3.690 0.000
467 1 208.769 3.690 0.000
468 1 209.480 2.460 0.000
469 1 210.900 2.460 0.000
470 1 211.610 3.690 0.000
471 1 213.030 3.690 0.000
472 1 213.740 2.460 0.000
473 1 215.160 2.460 0.000
474 1 215.870 3.690 0.000
475 1 217.291 3.690 0.000
476 2 217.291 3.690 1.500
477 3 218.391 3.690 1.633
478 3 216.191 3.690 1.633
479 2 217.291 3.690 3.040
480 3 218.391 3.690 3.173
481 3 216.741 4.643 3.173
482 3 216.741 2.737 3.173
483 1 218.001 2.460 0.000
484 1 219.421 2.460 0.000
485 1 220.131 3.690 0.000
486 1 221.551 3.690 0.000
487 1 222.261 2.460 0.000
488 3 222.261 2.460 -1.100
489 1 223.681 2.460 0.000
490 1 224.392 3.690 0.000
491 1 225.812 3.690 0.000
492 1 226.522 2.460 0.000
493 1 227.942 2.460 0.000
494 1 228.652 3.690 0.000
495 1 230.072 3.690 0.000
496 1 230.783 2.460 0.000
497 1 232.203 2.460 0.000
498 1 232.913 3.690 0.000
499 1 234.333 3.690 0.000
500 1 235.043 2.460 0.000
501 1 236.463 2.460 0.000
502 1 237.173 3.690 0.000
503 1 238.594 3.690 0.000
504 1 239.304 2.460 0.000
505 1 240.724 2.460 0.000
506 1 241.434 3.690 0.000
507 1 242.854 3.690 0.000
508 1 243.564 2.460 0.000
509 1 244.985 2.460 0.000
510 1 245.695 3.690 0.000
511 1 247.115 3.690 0.000
512 1 247.825 2.460 0.000
513 1 249.245 2.460 0.000
514 1 249.955 3.690 0.000
515 1 0.000 6.150 0.000
516 1 0.710 4.920 0.000
517 1 2.130 4.920 0.000
518 1 2.840 6.150 0.000
519 1 4.261 6.150 0.000
520 1 4.971 4.920 0.000
521 1 6.391 4.920 0.000
522 1 7.101 6.150 0.000
523 1 8.521 6.150 0.000
524 3 8.521 6.150 1.100
525 1 9.231 4.920 0.000
526 1 10.652 4.920 0.000
527 1 11.362 6.150 0.000
528 1 12.782 6.150 0.000
529 1 13.492 4.920 0.000
530 1 14.912 4.920 0.000
531 1 15.622 6.150 0.000
532 1 17.042 6.150 0.000
533 1 17.753 4.920 0.000
534 1 19.173 4.920 0.000
535 1 19.883 6.150 0.000
536 1 21.303 6.150 0.000
537 1 22.013 4.920 0.000
538 3 22.013 4.920 1.100
539 1 23.433 4.920 0.000
540 1 24.143 6.150 0.000
541 1 25.564 6.150 0.000
542 1 26.274 4.920 0.000
543 1 27.694 4.920 0.000
544 1 28.404 6.150 0.000
545 1 29.824 6.150 0.000
546 1 30.534 4.920 0.000
547 1 31.954 4.920 0.000
548 1 32.665 6.150 0.000
549 1 34.085 6.150 0.000
550 1 34.795 4.920 0.000
551 1 36.215 4.920 0.000
552 1 36.925 6.150 0.000
553 3 36.925 6.150 -1.100
554 1 38.345 6.150 0.000
555 3 38.345 6.150 -1.100
556 1 39.055 4.920 0.000
557 1 40.476 4.920 0.000
558 1 41.186 6.150 0.000
559 1 42.606 6.150 0.000
560 1 43.316 4.920 0.000
561 1 44.736 4.920 0.000
562 1 45.446 6.150 0.000
563 1 46.867 6.150 0.000
564 1 47.577 4.920 0.000
565 1 48.997 4.920 0.000
566 1 49.707 6.150 0.000
567 1 51.127 6.150 0.000
568 1 51.837 4.920 0.000
569 1 53.258 4.920 0.000
570 1 53.968 6.150 0.000
571 1 55.388 6.150 0.000
572 1 56.098 4.920 0.000
573 1 57.518 4.920 0.000
574 1 58.228 6.150 0.000
575 1 59.648 6.150 0.000
576 1 60.358 4.920 0.000
577 1 61.779 4.920 0.000
578 3 61.779 4.920 1.100
579 1 62.489 6.150 0.000
580 1 63.909 6.150 0.000
581 1 64.619 4.920 0.000
582 1 66.039 4.920 0.000
583 1 66.749 6.150 0.000
584 1 68.170 6.150 0.000
585 1 68.880 4.920 0.000
586 1 70.300 4.920 0.000
587 1 71.010 6.150 0.000
588 1 72.430 6.150 0.000
589 1 73.140 4.920 0.000
590 1 74.561 4.920 0.000
591 1 75.271 6.150 0.000
592 1 76.691 6.150 0.000
593 1 77.401 4.920 0.000
594 3 77.401 4.920 -1.100
595 1 78.821 4.920 0.000
596 1 79.531 6.150 0.000
597 1 80.951 6.150 0.000
598 2 80.951 6.150 1.500
599 3 82.051 6.150 1.633
600 3 79.851 6.150 1.633
601 2 80.951 6.150 3.040
602 3 82.051 6.150 3.173
603 3 80.401 7.103 3.173
604 3 80.401 5.197 3.173
605 1 81.662 4.920 0.000
606 1 83.082 4.920 0.000
607 1 83.792 6.150 0.000
608 1 85.212 6.150 0.000
609 1 85.922 4.920 0.000
610 1 87.342 4.920 0.000
611 1 88.052 6.150 0.000
612 1 89.473 6.150 0.000
613 1 90.183 4.920 0.000
614 1 91.603 4.920 0.000
615 1 92.313 6.150 0.000
616 1 93.733 6.150 0.000
617 1 94.443 4.920 0.000
618 1 95.864 4.920 0.000
619 1 96.574 6.150 0.000
620 1 97.994 6.150 0.000
621 1 98.704 4.920 0.000
622 1 100.124 4.920 0.000
623 1 100.834 6.150 0.000
624 1 102.254 6.150 0.000
625 1 102.965 4.920 0.000
626 1 104.385 4.920 0.000
627 3 104.385 4.920 1.100
628 1 105.095 6.150 0.000
629 1 106.515 6.150 0.000
630 1 107.225 4.920 0.000
631 1 108.645 4.920 0.000
632 1 109.355 6.150 0.000
633 1 110.776 6.150 0.000
634 1 111.486 4.920 0.000
635 1 112.906 4.920 0.000
636 1 113.616 6.150 0.000
637 1 115.036 6.150 0.000
638 1 115.746 4.920 0.000
639 1 117.167 4.920 0.000
640 1 117.877 6.150 0.000
641 1 119.297 6.150 0.000
642 1 120.007 4.920 0.000
643 1 121.427 4.920 0.000
644 3 121.427 4.920 1.100
645 1 122.137 6.150 0.000
646 3 122.137 6.150 -1.100
647 1 123.557 6.150 0.000
648 1 124.267 4.920 0.000
649 1 125.688 4.920 0.000
650 1 126.398 6.150 0.000
651 1 127.818 6.150 0.000
652 1 128.528 4.920 0.000
653 1 129.948 4.920 0.000
654 1 130.658 6.150 0.000
655 1 132.079 6.150 0.000
656 1 132.789 4.920 0.000
657 1 134.209 4.920 0.000
658 1 134.919 6.150 0.000
659 1 136.339 6.150 0.000
660 1 137.049 4.920 0.000
661 1 138.470 4.920 0.000
662 1 139.180 6.150 0.000
663 3 139.180 6.150 -1.100
664 1 140.600 6.150 0.000
665 1 141.310 4.920 0.000
666 1 142.730 4.920 0.000
667 1 143.440 6.150 0.000
668 1 144.860 6.150 0.000
669 1 145.571 4.920 0.000
670 1 146.991 4.920 0.000
671 1 147.701 6.150 0.000
672 1 149.121 6.150 0.000
673 1 149.831 4.920 0.000
674 1 151.251 4.920 0.000
675 3 151.251 4.920 1.100
676 1 151.961 6.150 0.000
677 1 153.382 6.150 0.000
678 1 154.092 4.920 0.000
679 1 155.512 4.920 0.000
680 1 156.222 6.150 0.000
681 1 157.642 6.150 0.000
682 1 158.352 4.920 0.000
683 1 159.773 4.920 0.000
684 1 160.483 6.150 0.000
685 1 161.903 6.150 0.000
686 1 162.613 4.920 0.000
687 1 164.033 4.920 0.000
688 1 164.743 6.150 0.000
689 1 166.163 6.150 0.000
690 1 166.874 4.920 0.000
691 1 168.294 4.920 0.000
692 1 169.004 6.150 0.000
693 1 170.424 6.150 0.000
694 1 171.134 4.920 0.000
695 1 172.554 4.920 0.000
696 1 173.264 6.150 0.000
697 1 174.685 6.150 0.000
698 1 175.395 4.920 0.000
699 1 176.815 4.920 0.000
700 1 177.525 6.150 0.000
701 1 178.945 6.150 0.000
702 1 179.655 4.920 0.000
703 1 181.076 4.920 0.000
704 1 181.786 6.150 0.000
705 1 183.206 6.150 0.000
706 1 183.916 4.920 0.000
707 1 185.336 4.920 0.000
708 1 186.046 6.150 0.000
709 1 187.466 6.150 0.000
710 1 188.177 4.920 0.000
711 1 189.597 4.920 0.000
712 1 190.307 6.150 0.000
713 1 191.727 6.150 0.000
714 1 192.437 4.920 0.000
715 1 193.857 4.920 0.000
716 1 194.567 6.150 0.000
717 1 195.988 6.150 0.000
718 1 196.698 4.920 0.000
719 1 198.118 4.920 0.000
720 1 198.828 6.150 0.000
721 1 200.248 6.150 0.000
722 1 200.958 4.920 0.000
723 1 202.379 4.920 0.000
724 1 203.089 6.150 0.000
725 1 204.509 6.150 0.000
726 1 205.219 4.920 0.000
727 1 206.639 4.920 0.000
728 1 207.349 6.150 0.000
729 1 208.769 6.150 0.000
730 1 209.480 4.920 0.000
731 1 210.900 4.920 0.000
732 1 211.610 6.150 0.000
733 1 213.030 6.150 0.000
734 3 213.030 6.150 -1.100
735 1 213.740 4.920 0.000
736 1 215.160 4.920 0.000
737 1 215.870 6.150 0.000
738 1 217.291 6.150 0.000
739 1 218.001 4.920 0.000
740 1 219.421 4.920 0.000
741 1 220.131 6.150 0.000
742 1 221.551 6.150 0.000
743 1 222.261 4.920 0.000
744 3 222.261 4.920 1.100
745 1 223.681 4.920 0.000
746 1 224.392 6.150 0.000
747 1 225.812 6.150 0.000
748 3 225.812 6.150 -1.100
749 1 226.522 4.920 0.000
750 1 227.942 4.920 0.000
751 1 228.652 6.150 0.000
752 1 230.072 6.150 0.000
753 3 230.072 6.150 1.100
754 1 230.783 4.920 0.000
755 1 232.203 4.920 0.000
756 1 232.913 6.150 0.000
757 1 234.333 6.150 0.000
758 1 235.043 4.920 0.000
759 1 236.463 4.920 0.000
760 1 237.173 6.150 0.000
761 1 238.594 6.150 0.000
762 2 238.594 6.150 -1.500
763 3 239.694 6.150 -1.633
764 3 237.494 6.150 -1.633
765 2 238.594 6.150 -3.040
766 3 239.694 6.150 -3.173
767 3 238.044 7.103 -3.173
768 3 238.044 5.197 -3.173
769 1 239.304 4.920 0.000
770 1 240.724 4.920 0.000
771 1 241.434 6.150 0.000
772 1 242.854 6.150 0.000
773 1 243.564 4.920 0.000
774 2 243.564 4.920 1.500
775 3 244.664 4.920 1.633
776 3 243.014 5.873 1.633
777 3 243.014 3.967 1.633
778 1 244.985 4.920 0.000
779 1 245.695 6.150 0.000
780 1 247.115 6.150 0.000
781 1 247.825 4.920 0.000
782 1 249.245 4.920 0.000
783 1 249.955 6.150 0.000
784 1 0.000 8.610 0.000
785 1 0.710 7.380 0.000
786 1 2.130 7.380 0.000
787 1 2.840 8.610 0.000
788 1 4.261 8.610 0.000
789 1 4.971 7.380 0.000
790 1 6.391 7.380 0.000
791 1 7.101 8.610 0.000
792 1 8.521 8.610 0.000
793 1 9.231 7.380 0.000
794 1 10.652 7.380 0.000
795 1 11.362 8.610 0.000
796 1 12.782 8.610 0.000
797 1 13.492 7.380 0.000
798 1 14.912 7.380 0.000
799 1 15.622 8.610 0.000
800 1 17.042 8.610 0.000
801 1 17.753 7.380 0.000
802 1 19.173 7.380 0.000
803 1 19.883 8.610 0.000
804 1 21.303 8.610 0.000
805 1 22.013 7.380 0.000
806 1 23.433 7.380 0.000
807 1 24.143 8.610 0.000
808 1 25.564 8.610 0.000
809 1 26.274 7.380 0.000
810 1 27.694 7.380 0.000
811 1 28.404 8.610 0.000
812 1 29.824 8.610 0.000
813 1 30.534 7.380 0.000
814 1 31.954 7.380 0.000
815 1 32.665 8.610 0.000
816 1 34.085 8.610 0.000
817 1 34.795 7.380 0.000
818 1 36.215 7.380 0.000
819 1 36.925 8.610 0.000
820 3 36.925 8.610 -1.100
821 1 38.345 8.610 0.000
822 3 38.345 8.610 1.100
823 1 39.055 7.380 0.000
824 1 40.476 7.380 0.000
825 1 41.186 8.610 0.000
826 1 42.606 8.610 0.000
827 1 43.316 7.380 0.000
828 1 44.736 7.380 0.000
829 1 45.446 8.610 0.000
830 1 46.867 8.610 0.000
831 1 47.577 7.380 0.000
832 1 48.997 7.380 0.000
833 1 49.707 8.610 0.000
834 1 51.127 8.610 0.000
835 1 51.837 7.380 0.000
836 1 53.258 7.380 0.000
837 1 53.968 8.610 0.000
838 1 55.388 8.610 0.000
839 1 56.098 7.380 0.000
840 1 57.518 7.380 0.000
841 1 58.228 8.610 0.000
842 1 59.648 8.610 0.000
843 1 60.358 7.380 0.000
844 1 61.779 7.380 0.000
845 1 62.489 8.610 0.000
846 1 63.909 8.610 0.000
847 1 64.619 7.380 0.000
848 1 66.039 7.380 0.000
849 1 66.749 8.610 0.000
850 1 68.170 8.610 0.000
851 1 68.880 7.380 0.000
852 1 70.300 7.380 0.000
853 1 71.010 8.610 0.000
854 1 72.430 8.610 0.000
855 1 73.140 7.380 0.000
856 1 74.561 7.380 0.000
857 1 75.271 8.610 0.000
858 1 76.691 8.610 0.000
859 1 77.401 7.380 0.000
860 1 78.821 7.380 0.000
861 1 79.531 8.610 0.000
862 1 80.951 8.610 0.000
863 1 81.662 7.380 0.000
864 1 83.082 7.380 0.000
865 1 83.792 8.610 0.000
866 1 85.212 8.610 0.000
867 1 85.922 7.380 0.000
868 1 87.342 7.380 0.000
869 1 88.052 8.610 0.000
870 1 89.473 8.610 0.000
871 1 90.183 7.380 0.000
872 1 91.603 7.380 0.000
873 1 92.313 8.610 0.000
874 1 93.733 8.610 0.000
875 1 94.443 7.380 0.000
876 1 95.864 7.380 0.000
877 1 96.574 8.610 0.000
878 1 97.994 8.610 0.000
879 1 98.704 7.380 0.000
880 1 100.124 7.380 0.000
881 1 100.834 8.610 0.000
882 1 102.254 8.610 0.000
883 1 102.965 7.380 0.000
884 1 104.385 7.380 0.000
885 1 105.095 8.610 0.000
886 1 106.515 8.610 0.000
887 1 107.225 7.380 0.000
888 1 108.645 7.380 0.000
889 1 109.355 8.610 0.000
890 1 110.776 8.610 0.000
891 1 111.486 7.380 0.000
892 1 112.906 7.380 0.000
893 1 113.616 8.610 0.000
894 1 115.036 8.610 0.000
895 1 115.746 7.380 0.000
896 1 117.167 7.380 0.000
897 1 117.877 8.610 0.000
898 1 119.297 8.610 0.000
899 1 120.007 7.380 0.000
900 1 121.427 7.380 0.000
901 1 122.137 8.610 0.000
902 1 123.557 8.610 0.000
903 1 124.267 7.380 0.000
904 1 125.688 7.380 0.000
905 1 126.398 8.610 0.000
906 1 127.818 8.610 0.000
907 1 128.528 7.380 0.000
908 1 129.948 7.380 0.000
909 1 130.658 8.610 0.000
910 1 132.079 8.610 0.000
911 1 132.789 7.380 0.000
912 1 134.209 7.380 0.000
913 1 134.919 8.610 0.000
914 1 136.339 8.610 0.000
915 1 137.049 7.380 0.000
916 1 138.470 7.380 0.000
917 1 139.180 8.610 0.000
918 1 140.600 8.610 0.000
919 1 141.310 7.380 0.000
920 1 142.730 7.380 0.000
921 3 142.730 7.380 -1.100
922 1 143.440 8.610 0.000
923 1 144.860 8.610 0.000
924 1 145.571 7.380 0.000
925 1 146.991 7.380 0.000
926 3 146.991 7.380 -1.100
927 1 147.701 8.610 0.000
928 1 149.121 8.610 0.000
929 3 149.121 8.610 1.100
930 1 149.831 7.380 0.000
931 1 151.251 7.380 0.000
932 1 151.961 8.610 0.000
933 1 153.382 8.610 0.000
934 1 154.092 7.380 0.000
935 1 155.512 7.380 0.000
936 1 156.222 8.610 0.000
937 1 157.642 8.610 0.000
938 1 158.352 7.380 0.000
939 1 159.773 7.380 0.000
940 1 160.483 8.610 0.000
941 1 161.903 8.610 0.000
942 1 162.613 7.380 0.000
943 1 164.033 7.380 0.000
944 1 164.743 8.610 0.000
945 1 166.163 8.610 0.000
946 1 166.874 7.380 0.000
947 1 168.294 7.380 0.000
948 1 169.004 8.610 0.000
949 1 170.424 8.610 0.000
950 1 171.134 7.380 0.000
951 1 172.554 7.380 0.000
952 1 173.264 8.610 0.000
953 1 174.685 8.610 0.000
954 1 175.395 7.380 0.000
955 1 176.815 7.380 0.000
956 1 177.525 8.610 0.000
957 1 178.945 8.610 0.000
958 1 179.655 7.380 0.000
959 1 181.076 7.380 0.000
960 1 181.786 8.610 0.000
961 1 183.206 8.610 0.000
962 1 183.916 7.380 0.000
963 1 185.336 7.380 0.000
964 1 186.046 8.610 0.000
965 1 187.466 8.610 0.000
966 1 188.177 7.380 0.000
967 1 189.597 7.380 0.000
968 1 190.307 8.610 0.000
969 1 191.727 8.610 0.000
970 1 192.437 7.380 0.000
971 1 193.857 7.380 0.000
972 1 194.567 8.610 0.000
973 1 195.988 8.610 0.000
974 1 196.698 7.380 0.000
975 1 198.118 7.380 0.000
976 1 198.828 8.610 0.000
977 1 200.248 8.610 0.000
978 1 200.958 7.380 0.000
979 1 202.379 7.380 0.000
980 1 203.089 8.610 0.000
981 1 204.509 8.610 0.000
982 2 204.509 8.610 1.500
983 3 205.609 8.610 1.633
984 3 203.409 8.610 1.633
985 2 204.509 8.610 3.040
986 3 205.609 8.610 3.173
987 3 203.959 9.563 3.173
988 3 203.959 7.657 3.173
989 1 205.219 7.380 0.000
990 1 206.639 7.380 0.000
991 1 207.349 8.610 0.000
992 1 208.769 8.610 0.000
993 1 209.480 7.380 0.000
994 1 210.900 7.380 0.000
995 1 211.610 8.610 0.000
996 1 213.030 8.610 0.000
997 1 213.740 7.380 0.000
998 1 215.160 7.380 0.000
999 1 215.870 8.610 0.000
1000 1 217.291 8.610 0.000
1001 1 218.001 7.380 0.000
1002 1 219.421 7.380 0.000
1003 1 220.131 8.610 0.000
1004 1 221.551 8.610 0.000
1005 1 222.261 7.380 0.000
1006 1 223.681 7.380 0.000
1007 1 224.392 8.610 0.000
1008 1 225.812 8.610 0.000
1009 1 226.522 7.380 0.000
1010 1 227.942 7.380 0.000
1011 1 228.652 8.610 0.000
1012 1 230.072 8.610 0.000
1013 1 230.783 7.380 0.000
1014 1 232.203 7.380 0.000
1015 1 232.913 8.610 0.000
1016 1 234.333 8.610 0.000
1017 1 235.043 7.380 0.000
1018 1 236.463 7.380 0.000
1019 1 237.173 8.610 0.000
1020 1 238.594 8.610 0.000
1021 1 239.304 7.380 0.000
1022 1 240.724 7.380 0.000
1023 1 241.434 8.610 0.000
1024 1 242.854 8.610 0.000
1025 1 243.564 7.380 0.000
1026 1 244.985 7.380 0.000
1027 1 245.695 8.610 0.000
1028 1 247.115 8.610 0.000
1029 1 247.825 7.380 0.000
1030 1 249.245 7.380 0.000
1031 1 249.955 8.610 0.000
1032 1 0.000 11.069 0.000
1033 1 0.710 9.839 0.000
1034 1 2.130 9.839 0.000
1035 1 2.840 11.069 0.000
1036 1 4.261 11.069 0.000
1037 1 4.971 9.839 0.000
1038 1 6.391 9.839 0.000
1039 1 7.101 11.069 0.000
1040 1 8.521 11.069 0.000
1041 1 9.231 9.839 0.000
1042 1 10.652 9.839 0.000
1043 1 11.362 11.069 0.000
1044 1 12.782 11.069 0.000
1045 1 13.492 9.839 0.000
1046 1 14.912 9.839 0.000
1047 1 15.622 11.069 0.000
1048 1 17.042 11.069 0.000
1049 1 17.753 9.839 0.000
1050 1 19.173 9.839 0.000
1051 1 19.883 11.069 0.000
1052 1 21.303 11.069 0.000
1053 1 22.013 9.839 0.000
1054 1 23.433 9.839 0.000
1055 1 24.143 11.069 0.000
1056 1 25.564 11.069 0.000
1057 3 25.564 11.069 1.100
1058 1 26.274 9.839 0.000
1059 1 27.694 9.839 0.000
1060 1 28.404 11.069 0.000
1061 1 29.824 11.069 0.000
1062 1 30.534 9.839 0.000
1063 1 31.954 9.839 0.000
1064 1 32.665 11.069 0.000
1065 1 34.085 11.069 0.000
1066 1 34.795 9.839 0.000
1067 1 36.215 9.839 0.000
1068 1 36.925 11.069 0.000
1069 1 38.345 11.069 0.000
1070 1 39.055 9.839 0.000
1071 1 40.476 9.839 0.000
1072 1 41.186 11.069 0.000
1073 1 42.606 11.069 0.000
1074 1 43.316 9.839 0.000
1075 1 44.736 9.839 0.000
1076 1 45.446 11.069 0.000
1077 1 46.867 11.069 0.000
1078 1 47.577 9.839 0.000
1079 1 48.997 9.839 0.000
1080 1 49.707 11.069 0.000
1081 1 51.127 11.069 0.000
1082 1 51.837 9.839 0.000
1083 1 53.258 9.839 0.000
1084 1 53.968 11.069 0.000
1085 1 55.388 11.069 0.000
1086 1 56.098 9.839 0.000
1087 1 57.518 9.839 0.000
1088 1 58.228 11.069 0.000
1089 1 59.648 11.069 0.000
1090 1 60.358 9.839 0.000
1091 1 61.779 9.839 0.000
1092 1 62.489 11.069 0.000
1093 1 63.909 11.069 0.000
1094 1 64.619 9.839 0.000
1095 1 66.039 9.839 0.000
1096 1 66.749 11.069 0.000
1097 1 68.170 11.069 0.000
1098 1 68.880 9.839 0.000
1099 1 70.300 9.839 0.000
1100 3 70.300 9.839 1.100
1101 1 71.010 11.069 0.000
1102 1 72.430 11.069 0.000
1103 1 73.140 9.839 0.000
1104 1 74.561 9.839 0.000
1105 1 75.271 11.069 0.000
1106 1 76.691 11.069 0.000
1107 1 77.401 9.839 0.000
1108 1 78.821 9.839 0.000
1109 1 79.531 11.069 0.000
1110 1 80.951 11.069 0.000
1111 1 81.662 9.839 0.000
1112 1 83.082 9.839 0.000
1113 1 83.792 11.069 0.000
1114 1 85.212 11.069 0.000
1115 1 85.922 9.839 0.000
1116 1 87.342 9.839 0.000
1117 1 88.052 11.069 0.000
1118 1 89.473 11.069 0.000
1119 1 90.183 9.839 0.000
1120 1 91.603 9.839 0.000
1121 1 92.313 11.069 0.000
1122 1 93.733 11.069 0.000
1123 1 94.443 9.839 0.000
1124 1 95.864 9.839 0.000
1125 1 96.574 11.069 0.000
1126 1 97.994 11.069 0.000
1127 1 98.704 9.839 0.000
1128 1 100.124 9.839 0.000
1129 1 100.834 11.069 0.000
1130 1 102.254 11.069 0.000
1131 1 102.965 9.839 0.000
1132 1 104.385 9.839 0.000
1133 1 105.095 11.069 0.000
1134 1 106.515 11.069 0.000
1135 1 107.225 9.839 0.000
1136 1 108.645 9.839 0.000
1137 1 109.355 11.069 0.000
1138 1 110.776 11.069 0.000
1139 1 111.486 9.839 0.000
1140 1 112.906 9.839 0.000
1141 1 113.616 11.069 0.000
1142 1 115.036 11.069 0.000
1143 1 115.746 9.839 0.000
1144 1 117.167 9.839 0.000
1145 1 117.877 11.069 0.000
1146 1 119.297 11.069 0.000
1147 1 120.007 9.839 0.000
1148 1 121.427 9.839 0.000
1149 1 122.137 11.069 0.000
1150 1 123.557 11.069 0.000
1151 1 124.267 9.839 0.000
1152 1 125.688 9.839 0.000
1153 1 126.398 11.069 0.000
1154 1 127.818 11.069 0.000
1155 1 128.528 9.839 0.000
1156 1 129.948 9.839 0.000
1157 1 130.658 11.069 0.000
1158 1 132.079 11.069 0.000
1159 1 132.789 9.839 0.000
1160 1 134.209 9.839 0.000
1161 1 134.919 11.069 0.000
1162 1 136.339 11.069 0.000
1163 1 137.049 9.839 0.000
1164 1 138.470 9.839 0.000
1165 1 139.180 11.069 0.000
1166 1 140.600 11.069 0.000
1167 1 141.310 9.839 0.000
1168 3 141.310 9.839 -1.100
1169 1 142.730 9.839 0.000
1170 1 143.440 11.069 0.000
1171 1 144.860 11.069 0.000
1172 1 145.571 9.839 0.000
1173 1 146.991 9.839 0.000
1174 1 147.701 11.069 0.000
1175 1 149.121 11.069 0.000
1176 1 149.831 9.839 0.000
1177 1 151.251 9.839 0.000
1178 1 151.961 11.069 0.000
1179 1 153.382 11.069 0.000
1180 1 154.092 9.839 0.000
1181 1 155.512 9.839 0.000
1182 1 156.222 11.069 0.000
1183 1 157.642 11.069 0.000
1184 1 158.352 9.839 0.000
1185 1 159.773 9.839 0.000
1186 1 160.483 11.069 0.000
1187 1 161.903 11.069 0.000
1188 1 162.613 9.839 0.000
1189 1 164.033 9.839 0.000
1190 1 164.743 11.069 0.000
1191 1 166.163 11.069 0.000
1192 1 166.874 9.839 0.000
1193 1 168.294 9.839 0.000
1194 1 169.004 11.069 0.000
1195 1 170.424 11.069 0.000
1196 1 171.134 9.839 0.000
1197 1 172.554 9.839 0.000
1198 1 173.264 11.069 0.000
1199 1 174.685 11.069 0.000
1200 1 175.395 9.839 0.000
1201 1 176.815 9.839 0.000
1202 1 177.525 11.069 0.000
1203 1 178.945 11.069 0.000
1204 1 179.655 9.839 0.000
1205 1 181.076 9.839 0.000
1206 1 181.786 11.069 0.000
1207 1 183.206 11.069 0.000
1208 1 183.916 9.839 0.000
1209 1 185.336 9.839 0.000
1210 1 186.046 11.069 0.000
1211 1 187.466 11.069 0.000
1212 1 188.177 9.839 0.000
1213 1 189.597 9.839 0.000
1214 1 190.307 11.069 0.000
1215 1 191.727 11.069 0.000
1216 1 192.437 9.839 0.000
1217 3 192.437 9.839 -1.100
1218 1 193.857 9.839 0.000
1219 1 194.567 11.069 0.000
1220 1 195.988 11.069 0.000
1221 1 196.698 9.839 0.000
1222 1 198.118 9.839 0.000
1223 1 198.828 11.069 0.000
1224 1 200.248 11.069 0.000
1225 1 200.958 9.839 0.000
1226 1 202.379 9.839 0.000
1227 1 203.089 11.069 0.000
1228 1 204.509 11.069 0.000
1229 1 205.219 9.839 0.000
1230 1 206.639 9.839 0.000
1231 1 207.349 11.069 0.000
1232 1 208.769 11.069 0.000
1233 1 209.480 9.839 0.000
1234 1 210.900 9.839 0.000
1235 1 211.610 11.069 0.000
1236 1 213.030 11.069 0.000
1237 1 213.740 9.839 0.000
1238 1 215.160 9.839 0.000
1239 1 215.870 11.069 0.000
1240 1 217.291 11.069 0.000
1241 1 218.001 9.839 0.000
1242 3 218.001 9.839 -1.100
1243 1 219.421 9.839 0.000
1244 1 220.131 11.069 0.000
1245 1 221.551 11.069 0.000
1246 1 222.261 9.839 0.000
1247 1 223.681 9.839 0.000
1248 3 223.681 9.839 -1.100
1249 1 224.392 11.069 0.000
1250 1 225.812 11.069 0.000
1251 1 226.522 9.839 0.000
1252 1 227.942 9.839 0.000
1253 1 228.652 11.069 0.000
1254 1 230.072 11.069 0.000
1255 1 230.783 9.839 0.000
1256 1 232.203 9.839 0.000
1257 1 232.913 11.069 0.000
1258 1 234.333 11.069 0.000
1259 1 235.043 9.839 0.000
1260 1 236.463 9.839 0.000
1261 3 236.463 9.839 1.100
1262 1 237.173 11.069 0.000
1263 1 238.594 11.069 0.000
1264 1 239.304 9.839 0.000
1265 1 240.724 9.839 0.000
1266 1 241.434 11.069 0.000
1267 1 242.854 11.069 0.000
1268 1 243.564 9.839 0.000
1269 1 244.985 9.839 0.000
1270 1 245.695 11.069 0.000
1271 1 247.115 11.069 0.000
1272 1 247.825 9.839 0.000
1273 1 249.245 9.839 0.000
1274 1 249.955 11.069 0.000
1275 1 0.000 13.529 0.000
1276 1 0.710 12.299 0.000
1277 1 2.130 12.299 0.000
1278 2 2.130 12.299 -1.500
1279 3 3.230 12.299 -1.633
1280 3 1.030 12.299 -1.633
1281 2 2.130 12.299 -3.040
1282 3 3.230 12.299 -3.173
1283 3 1.580 13.252 -3.173
1284 3 1.580 11.346 -3.173
1285 1 2.840 13.529 0.000
1286 1 4.261 13.529 0.000
1287 1 4.971 12.299 0.000
1288 1 6.391 12.299 0.000
1289 1 7.101 13.529 0.000
1290 1 8.521 13.529 0.000
1291 1 9.231 12.299 0.000
1292 1 10.652 12.299 0.000
1293 1 11.362 13.529 0.000
1294 1 12.782 13.529 0.000
1295 1 13.492 12.299 0.000
1296 1 14.912 12.299 0.000
1297 1 15.622 13.529 0.000
1298 1 17.042 13.529 0.000
1299 1 17.753 12.299 0.000
1300 1 19.173 12.299 0.000
1301 1 19.883 13.529 0.000
1302 1 21.303 13.529 0.000
1303 1 22.013 12.299 0.000
1304 3 22.013 12.299 -1.100
1305 1 23.433 12.299 0.000
1306 1 24.143 13.529 0.000
1307 1 25.564 13.529 0.000
1308 1 26.274 12.299 0.000
1309 1 27.694 12.299 0.000
1310 3 27.694 12.299 1.100
1311 1 28.404 13.529 0.000
1312 1 29.824 13.529 0.000
1313 1 30.534 12.299 0.000
1314 1 31.954 12.299 0.000
1315 1 32.665 13.529 0.000
1316 1 34.085 13.529 0.000
1317 1 34.795 12.299 0.000
1318 1 36.215 12.299 0.000
1319 1 36.925 13.529 0.000
1320 1 38.345 13.529 0.000
1321 1 39.055 12.299 0.000
1322 1 40.476 12.299 0.000
1323 1 41.186 13.529 0.000
1324 1 42.606 13.529 0.000
1325 1 43.316 12.299 0.000
1326 1 44.736 12.299 0.000
1327 1 45.446 13.529 0.000
1328 3 45.446 13.529 1.100
1329 1 46.867 13.529 0.000
1330 1 47.577 12.299 0.000
1331 1 48.997 12.299 0.000
1332 1 49.707 13.529 0.000
1333 1 51.127 13.529 0.000
1334 1 51.837 12.299 0.000
1335 1 53.258 12.299 0.000
1336 1 53.968 13.529 0.000
1337 1 55.388 13.529 0.000
1338 1 56.098 12.299 0.000
1339 1 57.518 12.299 0.000
1340 1 58.228 13.529 0.000
1341 1 59.648 13.529 0.000
1342 1 60.358 12.299 0.000
1343 1 61.779 12.299 0.000
1344 3 61.779 12.299 -1.100
1345 1 62.489 13.529 0.000
1346 1 63.909 13.529 0.000
1347 1 64.619 12.299 0.000
1348 1 66.039 12.299 0.000
1349 1 66.749 13.529 0.000
1350 1 68.170 13.529 0.000
1351 1 68.880 12.299 0.000
1352 1 70.300 12.299 0.000
1353 1 71.010 13.529 0.000
1354 1 72.430 13.529 0.000
1355 1 73.140 12.299 0.000
1356 1 74.561 12.299 0.000
1357 1 75.271 13.529 0.000
1358 1 76.691 13.529 0.000
1359 1 77.401 12.299 0.000
1360 1 78.821 12.299 0.000
1361 1 79.531 13.529 0.000
1362 1 80.951 13.529 0.000
1363 1 81.662 12.299 0.000
1364 1 83.082 12.299 0.000
1365 1 83.792 13.529 0.000
1366 1 85.212 13.529 0.000
1367 1 85.922 12.299 0.000
1368 1 87.342 12.299 0.000
1369 1 88.052 13.529 0.000
1370 1 89.473 13.529 0.000
1371 1 90.183 12.299 0.000
1372 1 91.603 12.299 0.000
1373 1 92.313 13.529 0.000
1374 1 93.733 13.529 0.000
1375 1 94.443 12.299 0.000
1376 1 95.864 12.299 0.000
1377 1 96.574 13.529 0.000
1378 1 97.994 13.529 0.000
1379 1 98.704 12.299 0.000
1380 1 100.124 12.299 0.000
1381 1 100.834 13.529 0.000
1382 1 102.254 13.529 0.000
1383 1 102.965 12.299 0.000
1384 1 104.385 12.299 0.000
1385 1 105.095 13.529 0.000
1386 1 106.515 13.529 0.000
1387 1 107.225 12.299 0.000
1388 1 108.645 12.299 0.000
1389 1 109.355 13.529 0.000
1390 1 110.776 13.529 0.000
1391 1 111.486 12.299 0.000
1392 1 112.906 12.299 0.000
1393 1 113.616 13.529 0.000
1394 1 115.036 13.529 0.000
1395 1 115.746 12.299 0.000
1396 1 117.167 12.299 0.000
1397 1 117.877 13.529 0.000
1398 1 119.297 13.529 0.000
1399 1 120.007 12.299 0.000
1400 1 121.427 12.299 0.000
1401 1 122.137 13.529 0.000
1402 1 123.557 13.529 0.000
1403 1 124.267 12.299 0.000
1404 1 125.688 12.299 0.000
1405 1 126.398 13.529 0.000
1406 1 127.818 13.529 0.000
1407 1 128.528 12.299 0.000
1408 1 129.948 12.299 0.000
1409 1 130.658 13.529 0.000
1410 1 132.079 13.529 0.000
1411 1 132.789 12.299 0.000
1412 1 134.209 12.299 0.000
1413 1 134.919 13.529 0.000
1414 1 136.339 13.529 0.000
1415 1 137.049 12.299 0.000
1416 1 138.470 12.299 0.000
1417 1 139.180 13.529 0.000
1418 1 140.600 13.529 0.000
1419 1 141.310 12.299 0.000
1420 1 142.730 12.299 0.000
1421 3 142.730 12.299 -1.100
1422 1 143.440 13.529 0.000
1423 1 144.860 13.529 0.000
1424 1 145.571 12.299 0.000
1425 1 146.991 12.299 0.000
1426 3 146.991 12.299 1.100
1427 1 147.701 13.529 0.000
1428 1 149.121 13.529 0.000
1429 1 149.831 12.299 0.000
1430 3 149.831 12.299 1.100
1431 1 151.251 12.299 0.000
1432 1 151.961 13.529 0.000
1433 1 153.382 13.529 0.000
1434 1 154.092 12.299 0.000
1435 1 155.512 12.299 0.000
1436 1 156.222 13.529 0.000
1437 1 157.642 13.529 0.000
1438 1 158.352 12.299 0.000
1439 1 159.773 12.299 0.000
1440 1 160.483 13.529 0.000
1441 1 161.903 13.529 0.000
1442 1 162.613 12.299 0.000
1443 1 164.033 12.299 0.000
1444 1 164.743 13.529 0.000
1445 1 166.163 13.529 0.000
1446 1 166.874 12.299 0.000
1447 1 168.294 12.299 0.000
1448 1 169.004 13.529 0.000
1449 1 170.424 13.529 0.000
1450 1 171.134 12.299 0.000
1451 1 172.554 12.299 0.000
1452 1 173.264 13.529 0.000
1453 1 174.685 13.529 0.000
1454 1 175.395 12.299 0.000
1455 1 176.815 12.299 0.000
1456 1 177.525 13.529 0.000
1457 1 178.945 13.529 0.000
1458 1 179.655 12.299 0.000
1459 1 181.076 12.299 0.000
1460 1 181.786 13.529 0.000
1461 1 183.206 13.529 0.000
1462 1 183.916 12.299 0.000
1463 1 185.336 12.299 0.000
1464 1 186.046 13.529 0.000
1465 2 186.046 13.529 1.500
1466 3 187.146 13.529 1.633
1467 3 185.496 14.482 1.633
1468 3 185.496 12.576 1.633
1469 1 187.466 13.529 0.000
1470 1 188.177 12.299 0.000
1471 1 189.597 12.299 0.000
1472 1 190.307 13.529 0.000
1473 1 191.727 13.529 0.000
1474 1 192.437 12.299 0.000
1475 1 193.857 12.299 0.000
1476 1 194.567 13.529 0.000
1477 1 195.988 13.529 0.000
1478 3 195.988 13.529 1.100
1479 1 196.698 12.299 0.000
1480 3 196.698 12.299 1.100
1481 1 198.118 12.299 0.000
1482 1 198.828 13.529 0.000
1483 1 200.248 13.529 0.000
1484 1 200.958 12.299 0.000
1485 1 202.379 12.299 0.000
1486 1 203.089 13.529 0.000
1487 1 204.509 13.529 0.000
1488 1 205.219 12.299 0.000
1489 1 206.639 12.299 0.000
1490 1 207.349 13.529 0.000
1491 1 208.769 13.529 0.000
1492 1 209.480 12.299 0.000
1493 1 210.900 12.299 0.000
1494 1 211.610 13.529 0.000
1495 1 213.030 13.529 0.000
1496 1 213.740 12.299 0.000
1497 1 215.160 12.299 0.000
1498 1 215.870 13.529 0.000
1499 1 217.291 13.529 0.000
1500 1 218.001 12.299 0.000
1501 3 218.001 12.299 1.100
1502 1 219.421 12.299 0.000
1503 1 220.131 13.529 0.000
1504 1 221.551 13.529 0.000
1505 3 221.551 13.529 1.100
1506 1 222.261 12.299 0.000
1507 1 223.681 12.299 0.000
1508 1 224.392 13.529 0.000
1509 1 225.812 13.529 0.000
1510 1 226.522 12.299 0.000
1511 1 227.942 12.299 0.000
1512 1 228.652 13.529 0.000
1513 1 230.072 13.529 0.000
1514 1 230.783 12.299 0.000
1515 1 232.203 12.299 0.000
1516 1 232.913 13.529 0.000
1517 1 234.333 13.529 0.000
1518 1 235.043 12.299 0.000
1519 1 236.463 12.299 0.000
1520 1 237.173 13.529 0.000
1521 1 238.594 13.529 0.000
1522 3 238.594 13.529 -1.100
1523 1 239.304 12.299 0.000
1524 1 240.724 12.299 0.000
1525 1 241.434 13.529 0.000
1526 1 242.854 13.529 0.000
1527 1 243.564 12.299 0.000
1528 1 244.985 12.299 0.000
1529 1 245.695 13.529 0.000
1530 1 247.115 13.529 0.000
1531 1 247.825 12.299 0.000
1532 1 249.245 12.299 0.000
1533 1 249.955 13.529 0.000
1534 1 0.000 15.989 0.000
1535 1 0.710 14.759 0.000
1536 1 2.130 14.759 0.000
1537 1 2.840 15.989 0.000
1538 1 4.261 15.989 0.000
1539 1 4.971 14.759 0.000
1540 1 6.391 14.759 0.000
1541 1 7.101 15.989 0.000
1542 1 8.521 15.989 0.000
1543 1 9.231 14.759 0.000
1544 1 10.652 14.759 0.000
1545 1 11.362 15.989 0.000
1546 1 12.782 15.989 0.000
1547 1 13.492 14.759 0.000
1548 1 14.912 14.759 0.000
1549 1 15.622 15.989 0.000
1550 1 17.042 15.989 0.000
1551 1 17.753 14.759 0.000
1552 1 19.173 14.759 0.000
1553 1 19.883 15.989 0.000
1554 1 21.303 15.989 0.000
1555 1 22.013 14.759 0.000
1556 1 23.433 14.759 0.000
1557 1 24.143 15.989 0.000
1558 1 25.564 15.989 0.000
1559 1 26.274 14.759 0.000
1560 1 27.694 14.759 0.000
1561 1 28.404 15.989 0.000
1562 1 29.824 15.989 0.000
1563 1 30.534 14.759 0.000
1564 1 31.954 14.759 0.000
1565 1 32.665 15.989 0.000
1566 1 34.085 15.989 0.000
1567 1 34.795 14.759 0.000
1568 1 36.215 14.759 0.000
1569 1 36.925 15.989 0.000
1570 1 38.345 15.989 0.000
1571 1 39.055 14.759 0.000
1572 1 40.476 14.759 0.000
1573 1 41.186 15.989 0.000
1574 1 42.606 15.989 0.000
1575 2 42.606 15.989 -1.500
1576 3 43.706 15.989 -1.633
1577 3 41.506 15.989 -1.633
1578 2 42.606 15.989 -3.040
1579 3 43.706 15.989 -3.173
1580 3 42.056 16.942 -3.173
1581 3 42.056 15.036 -3.173
1582 1 43.316 14.759 0.000
1583 1 44.736 14.759 0.000
1584 1 45.446 15.989 0.000
1585 1 46.867 15.989 0.000
1586 3 46.867 15.989 1.100
1587 1 47.577 14.759 0.000
1588 1 48.997 14.759 0.000
1589 1 49.707 15.989 0.000
1590 1 51.127 15.989 0.000
1591 1 51.837 14.759 0.000
1592 1 53.258 14.759 0.000
1593 1 53.968 15.989 0.000
1594 1 55.388 15.989 0.000
1595 1 56.098 14.759 0.000
1596 1 57.518 14.759 0.000
1597 1 58.228 15.989 0.000
1598 1 59.648 15.989 0.000
1599 1 60.358 14.759 0.000
1600 1 61.779 14.759 0.000
1601 1 62.489 15.989 0.000
1602 1 63.909 15.989 0.000
1603 1 64.619 14.759 0.000
1604 1 66.039 14.759 0.000
1605 1 66.749 15.989 0.000
1606 1 68.170 15.989 0.000
1607 1 68.880 14.759 0.000
1608 1 70.300 14.759 0.000
1609 1 71.010 15.989 0.000
1610 1 72.430 15.989 0.000
1611 1 73.140 14.759 0.000
1612 1 74.561 14.759 0.000
1613 1 75.271 15.989 0.000
1614 1 76.691 15.989 0.000
1615 1 77.401 14.759 0.000
1616 1 78.821 14.759 0.000
1617 1 79.531 15.989 0.000
1618 1 80.951 15.989 0.000
1619 1 81.662 14.759 0.000
1620 1 83.082 14.759 0.000
1621 1 83.792 15.989 0.000
1622 1 85.212 15.989 0.000
1623 1 85.922 14.759 0.000
1624 1 87.342 14.759 0.000
1625 1 88.052 15.989 0.000
1626 1 89.473 15.989 0.000
1627 1 90.183 14.759 0.000
1628 1 91.603 14.759 0.000
1629 1 92.313 15.989 0.000
1630 1 93.733 15.989 0.000
1631 1 94.443 14.759 0.000
1632 1 95.864 14.759 0.000
1633 1 96.574 15.989 0.000
1634 1 97.994 15.989 0.000
1635 1 98.704 14.759 0.000
1636 1 100.124 14.759 0.000
1637 1 100.834 15.989 0.000
1638 1 102.254 15.989 0.000
1639 1 102.965 14.759 0.000
1640 3 102.965 14.759 -1.100
1641 1 104.385 14.759 0.000
1642 1 105.095 15.989 0.000
1643 1 106.515 15.989 0.000
1644 1 107.225 14.759 0.000
1645 1 108.645 14.759 0.000
1646 1 109.355 15.989 0.000
1647 1 110.776 15.989 0.000
1648 1 111.486 14.759 0.000
1649 1 112.906 14.759 0.000
1650 1 113.616 15.989 0.000
1651 1 115.036 15.989 0.000
1652 1 115.746 14.759 0.000
1653 1 117.167 14.759 0.000
1654 1 117.877 15.989 0.000
1655 1 119.297 15.989 0.000
1656 1 120.007 14.759 0.000
1657 1 121.427 14.759 0.000
1658 1 122.137 15.989 0.000
1659 1 123.557 15.989 0.000
1660 1 124.267 14.759 0.000
1661 1 125.688 14.759 0.000
1662 1 126.398 15.989 0.000
1663 1 127.818 15.989 0.000
1664 1 128.528 14.759 0.000
1665 1 129.948 14.759 0.000
1666 1 130.658 15.989 0.000
1667 1 132.079 15.989 0.000
1668 1 132.789 14.759 0.000
1669 1 134.209 14.759 0.000
1670 1 134.919 15.989 0.000
1671 1 136.339 15.989 0.000
1672 1 137.049 14.759 0.000
1673 2 137.049 14.759 -1.500
1674 3 138.149 14.759 -1.633
1675 3 135.949 14.759 -1.633
1676 2 137.049 14.759 -3.040
1677 3 138.149 14.759 -3.173
1678 3 136.499 15.712 -3.173
1679 3 136.499 13.806 -3.173
1680 1 138.470 14.759 0.000
1681 1 139.180 15.989 0.000
1682 1 140.600 15.989 0.000
1683 1 141.310 14.759 0.000
1684 1 142.730 14.759 0.000
1685 1 143.440 15.989 0.000
1686 3 143.440 15.989 1.100
1687 1 144.860 15.989 0.000
1688 1 145.571 14.759 0.000
1689 1 146.991 14.759 0.000
1690 1 147.701 15.989 0.000
1691 1 149.121 15.989 0.000
1692 1 149.831 14.759 0.000
1693 1 151.251 14.759 0.000
1694 1 151.961 15.989 0.000
1695 1 153.382 15.989 0.000
1696 1 154.092 14.759 0.000
1697 1 155.512 14.759 0.000
1698 1 156.222 15.989 0.000
1699 1 157.642 15.989 0.000
1700 1 158.352 14.759 0.000
1701 1 159.773 14.759 0.000
1702 1 160.483 15.989 0.000
1703 1 161.903 15.989 0.000
1704 1 162.613 14.759 0.000
1705 1 164.033 14.759 0.000
1706 1 164.743 15.989 0.000
1707 1 166.163 15.989 0.000
1708 1 166.874 14.759 0.000
1709 1 168.294 14.759 0.000
1710 1 169.004 15.989 0.000
1711 1 170.424 15.989 0.000
1712 1 171.134 14.759 0.000
1713 1 172.554 14.759 0.000
1714 1 173.264 15.989 0.000
1715 1 174.685 15.989 0.000
1716 1 175.395 14.759 0.000
1717 1 176.815 14.759 0.000
1718 1 177.525 15.989 0.000
1719 1 178.945 15.989 0.000
1720 1 179.655 14.759 0.000
1721 3 179.655 14.759 -1.100
1722 1 181.076 14.759 0.000
1723 1 181.786 15.989 0.000
1724 3 181.786 15.989 -1.100
1725 1 183.206 15.989 0.000
1726 1 183.916 14.759 0.000
1727 1 185.336 14.759 0.000
1728 1 186.046 15.989 0.000
1729 1 187.466 15.989 0.000
1730 1 188.177 14.759 0.000
1731 1 189.597 14.759 0.000
1732 1 190.307 15.989 0.000
1733 1 191.727 15.989 0.000
1734 1 192.437 14.759 0.000
1735 1 193.857 14.759 0.000
1736 1 194.567 15.989 0.000
1737 1 195.988 15.989 0.000
1738 1 196.698 14.759 0.000
1739 1 198.118 14.759 0.000
1740 1 198.828 15.989 0.000
1741 1 200.248 15.989 0.000
1742 1 200.958 14.759 0.000
1743 1 202.379 14.759 0.000
1744 1 203.089 15.989 0.000
1745 1 204.509 15.989 0.000
1746 1 205.219 14.759 0.000
1747 1 206.639 14.759 0.000
1748 1 207.349 15.989 0.000
1749 1 208.769 15.989 0.000
1750 1 209.480 14.759 0.000
1751 1 210.900 14.759 0.000
1752 1 211.610 15.989 0.000
1753 1 213.030 15.989 0.000
1754 1 213.740 14.759 0.000
1755 1 215.160 14.759 0.000
1756 1 215.870 15.989 0.000
1757 1 217.291 15.989 0.000
1758 1 218.001 14.759 0.000
1759 1 219.421 14.759 0.000
1760 1 220.131 15.989 0.000
1761 1 221.551 15.989 0.000
1762 1 222.261 14.759 0.000
1763 1 223.681 14.759 0.000
1764 1 224.392 15.989 0.000
1765 1 225.812 15.989 0.000
1766 1 226.522 14.759 0.000
1767 1 227.942 14.759 0.000
1768 3 227.942 14.759 1.100
1769 1 228.652 15.989 0.000
1770 1 230.072 15.989 0.000
1771 1 230.783 14.759 0.000
1772 1 232.203 14.759 0.000
1773 1 232.913 15.989 0.000
1774 1 234.333 15.989 0.000
1775 1 235.043 14.759 0.000
1776 1 236.463 14.759 0.000
1777 3 236.463 14.759 -1.100
1778 1 237.173 15.989 0.000
1779 1 238.594 15.989 0.000
1780 1 239.304 14.759 0.000
1781 1 240.724 14.759 0.000
1782 1 241.434 15.989 0.000
1783 1 242.854 15.989 0.000
1784 1 243.564 14.759 0.000
1785 1 244.985 14.759 0.000
1786 1 245.695 15.989 0.000
1787 1 247.115 15.989 0.000
1788 1 247.825 14.759 0.000
1789 1 249.245 14.759 0.000
1790 1 249.955 15.989 0.000
1791 1 0.000 18.449 0.000
1792 1 0.710 17.219 0.000
1793 1 2.130 17.219 0.000
1794 1 2.840 18.449 0.000
1795 1 4.261 18.449 0.000
1796 1 4.971 17.219 0.000
1797 1 6.391 17.219 0.000
1798 1 7.101 18.449 0.000
1799 1 8.521 18.449 0.000
1800 1 9.231 17.219 0.000
1801 1 10.652 17.219 0.000
1802 1 11.362 18.449 0.000
1803 1 12.782 18.449 0.000
1804 1 13.492 17.219 0.000
1805 1 14.912 17.219 0.000
1806 1 15.622 18.449 0.000
1807 1 17.042 18.449 0.000
1808 1 17.753 17.219 0.000
1809 3 17.753 17.219 1.100
1810 1 19.173 17.219 0.000
1811 1 19.883 18.449 0.000
1812 1 21.303 18.449 0.000
1813 1 22.013 17.219 0.000
1814 1 23.433 17.219 0.000
1815 1 24.143 18.449 0.000
1816 1 25.564 18.449 0.000
1817 1 26.274 17.219 0.000
1818 1 27.694 17.219 0.000
1819 1 28.404 18.449 0.000
1820 1 29.824 18.449 0.000
1821 1 30.534 17.219 0.000
1822 1 31.954 17.219 0.000
1823 3 31.954 17.219 1.100
1824 1 32.665 18.449 0.000
1825 1 34.085 18.449 0.000
1826 1 34.795 17.219 0.000
1827 1 36.215 17.219 0.000
1828 1 36.925 18.449 0.000
1829 1 38.345 18.449 0.000
1830 1 39.055 17.219 0.000
1831 1 40.476 17.219 0.000
1832 1 41.186 18.449 0.000
1833 1 42.606 18.449 0.000
1834 1 43.316 17.219 0.000
1835 1 44.736 17.219 0.000
1836 1 45.446 18.449 0.000
1837 1 46.867 18.449 0.000
1838 1 47.577 17.219 0.000
1839 1 48.997 17.219 0.000
1840 1 49.707 18.449 0.000
1841 1 51.127 18.449 0.000
1842 1 51.837 17.219 0.000
1843 1 53.258 17.219 0.000
1844 1 53.968 18.449 0.000
1845 1 55.388 18.449 0.000
1846 1 56.098 17.219 0.000
1847 1 57.518 17.219 0.000
1848 1 58.228 18.449 0.000
1849 1 59.648 18.449 0.000
1850 1 60.358 17.219 0.000
1851 1 61.779 17.219 0.000
1852 3 61.779 17.219 1.100
1853 1 62.489 18.449 0.000
1854 1 63.909 18.449 0.000
1855 2 63.909 18.449 1.500
1856 3 65.009 18.449 1.633
1857 3 63.359 19.402 1.633
1858 3 63.359 17.496 1.633
1859 1 64.619 17.219 0.000
1860 1 66.039 17.219 0.000
1861 1 66.749 18.449 0.000
1862 1 68.170 18.449 0.000
1863 1 68.880 17.219 0.000
1864 1 70.300 17.219 0.000
1865 1 71.010 18.449 0.000
1866 1 72.430 18.449 0.000
1867 1 73.140 17.219 0.000
1868 1 74.561 17.219 0.000
1869 1 75.271 18.449 0.000
1870 1 76.691 18.449 0.000
1871 1 77.401 17.219 0.000
1872 1 78.821 17.219 0.000
1873 1 79.531 18.449 0.000
1874 1 80.951 18.449 0.000
1875 1 81.662 17.219 0.000
1876 1 83.082 17.219 0.000
1877 1 83.792 18.449 0.000
1878 1 85.212 18.449 0.000
1879 3 85.212 18.449 -1.100
1880 1 85.922 17.219 0.000
1881 1 87.342 17.219 0.000
1882 1 88.052 18.449 0.000
1883 1 89.473 18.449 0.000
1884 1 90.183 17.219 0.000
1885 1 91.603 17.219 0.000
1886 1 92.313 18.449 0.000
1887 3 92.313 18.449 -1.100
1888 1 93.733 18.449 0.000
1889 1 94.443 17.219 0.000
1890 1 95.864 17.219 0.000
1891 1 96.574 18.449 0.000
1892 1 97.994 18.449 0.000
1893 1 98.704 17.219 0.000
1894 1 100.124 17.219 0.000
1895 1 100.834 18.449 0.000
1896 1 102.254 18.449 0.000
1897 1 102.965 17.219 0.000
1898 1 104.385 17.219 0.000
1899 1 105.095 18.449 0.000
1900 1 106.515 18.449 0.000
1901 1 107.225 17.219 0.000
1902 1 108.645 17.219 0.000
1903 1 109.355 18.449 0.000
1904 1 110.776 18.449 0.000
1905 1 111.486 17.219 0.000
1906 1 112.906 17.219 0.000
1907 1 113.616 18.449 0.000
1908 1 115.036 18.449 0.000
1909 1 115.746 17.219 0.000
1910 1 117.167 17.219 0.000
1911 1 117.877 18.449 0.000
1912 1 119.297 18.449 0.000
1913 1 120.007 17.219 0.000
1914 1 121.427 17.219 0.000
1915 3 121.427 17.219 -1.100
1916 1 122.137 18.449 0.000
1917 1 123.557 18.449 0.000
1918 1 124.267 17.219 0.000
1919 1 125.688 17.219 0.000
1920 1 126.398 18.449 0.000
1921 1 127.818 18.449 0.000
1922 1 128.528 17.219 0.000
1923 1 129.948 17.219 0.000
1924 1 130.658 18.449 0.000
1925 1 132.079 18.449 0.000
1926 3 132.079 18.449 -1.100
1927 1 132.789 17.219 0.000
1928 1 134.209 17.219 0.000
1929 1 134.919 18.449 0.000
1930 1 136.339 18.449 0.000
1931 1 137.049 17.219 0.000
1932 1 138.470 17.219 0.000
1933 1 139.180 18.449 0.000
1934 1 140.600 18.449 0.000
1935 1 141.310 17.219 0.000
1936 1 142.730 17.219 0.000
1937 1 143.440 18.449 0.000
1938 1 144.860 18.449 0.000
1939 1 145.571 17.219 0.000
1940 1 146.991 17.219 0.000
1941 1 147.701 18.449 0.000
1942 1 149.121 18.449 0.000
1943 1 149.831 17.219 0.000
1944 1 151.251 17.219 0.000
1945 1 151.961 18.449 0.000
1946 1 153.382 18.449 0.000
1947 1 154.092 17.219 0.000
1948 1 155.512 17.219 0.000
1949 1 156.222 18.449 0.000
1950 1 157.642 18.449 0.000
1951 1 158.352 17.219 0.000
1952 1 159.773 17.219 0.000
1953 1 160.483 18.449 0.000
1954 1 161.903 18.449 0.000
1955 1 162.613 17.219 0.000
1956 1 164.033 17.219 0.000
1957 1 164.743 18.449 0.000
1958 1 166.163 18.449 0.000
1959 1 166.874 17.219 0.000
1960 1 168.294 17.219 0.000
1961 1 169.004 18.449 0.000
1962 1 170.424 18.449 0.000
1963 1 171.134 17.219 0.000
1964 1 172.554 17.219 0.000
1965 1 173.264 18.449 0.000
1966 1 174.685 18.449 0.000
1967 1 175.395 17.219 0.000
1968 1 176.815 17.219 0.000
1969 1 177.525 18.449 0.000
1970 1 178.945 18.449 0.000
1971 1 179.655 17.219 0.000
1972 1 181.076 17.219 0.000
1973 1 181.786 18.449 0.000
1974 1 183.206 18.449 0.000
1975 1 183.916 17.219 0.000
1976 1 185.336 17.219 0.000
1977 1 186.046 18.449 0.000
1978 1 187.466 18.449 0.000
1979 1 188.177 17.219 0.000
1980 1 189.597 17.219 0.000
1981 1 190.307 18.449 0.000
1982 1 191.727 18.449 0.000
1983 1 192.437 17.219 0.000
1984 1 193.857 17.219 0.000
1985 1 194.567 18.449 0.000
1986 1 195.988 18.449 0.000
1987 1 196.698 17.219 0.000
1988 1 198.118 17.219 0.000
1989 1 198.828 18.449 0.000
1990 1 200.248 18.449 0.000
1991 1 200.958 17.219 0.000
1992 1 202.379 17.219 0.000
1993 1 203.089 18.449 0.000
1994 1 204.509 18.449 0.000
1995 1 205.219 17.219 0.000
1996 1 206.639 17.219 0.000
1997 1 207.349 18.449 0.000
1998 1 208.769 18.449 0.000
1999 1 209.480 17.219 0.000
2000 1 210.900 17.219 0.000
2001 1 211.610 18.449 0.000
2002 1 213.030 18.449 0.000
2003 1 213.740 17.219 0.000
2004 1 215.160 17.219 0.000
2005 1 215.870 18.449 0.000
2006 1 217.291 18.449 0.000
2007 1 218.001 17.219 0.000
2008 1 219.421 17.219 0.000
2009 1 220.131 18.449 0.000
2010 1 221.551 18.449 0.000
2011 1 222.261 17.219 0.000
2012 1 223.681 17.219 0.000
2013 1 224.392 18.449 0.000
2014 1 225.812 18.449 0.000
2015 1 226.522 17.219 0.000
2016 1 227.942 17.219 0.000
2017 1 228.652 18.449 0.000
2018 2 228.652 18.449 -1.500
2019 3 229.752 18.449 -1.633
2020 3 228.102 19.402 -1.633
2021 3 228.102 17.496 -1.633
2022 1 230.072 18.449 0.000
2023 1 230.783 17.219 0.000
2024 1 232.203 17.219 0.000
2025 3 232.203 17.219 1.100
2026 1 232.913 18.449 0.000
2027 1 234.333 18.449 0.000
2028 1 235.043 17.219 0.000
2029 1 236.463 17.219 0.000
2030 1 237.173 18.449 0.000
2031 1 238.594 18.449 0.000
2032 1 239.304 17.219 0.000
2033 1 240.724 17.219 0.000
2034 1 241.434 18.449 0.000
2035 1 242.854 18.449 0.000
2036 1 243.564 17.219 0.000
2037 1 244.985 17.219 0.000
2038 1 245.695 18.449 0.000
2039 1 247.115 18.449 0.000
2040 1 247.825 17.219 0.000
2041 1 249.245 17.219 0.000
2042 1 249.955 18.449 0.000
2043 1 0.000 20.909 0.000
2044 1 0.710 19.679 0.000
2045 1 2.130 19.679 0.000
2046 1 2.840 20.909 0.000
2047 1 4.261 20.909 0.000
2048 1 4.971 19.679 0.000
2049 1 6.391 19.679 0.000
2050 1 7.101 20.909 0.000
2051 1 8.521 20.909 0.000
2052 1 9.231 19.679 0.000
2053 1 10.652 19.679 0.000
2054 1 11.362 20.909 0.000
2055 1 12.782 20.909 0.000
2056 1 13.492 19.679 0.000
2057 1 14.912 19.679 0.000
2058 1 15.622 20.909 0.000
2059 2 15.622 20.909 1.500
2060 3 16.722 20.909 1.633
2061 3 14.522 20.909 1.633
2062 2 15.622 20.909 3.040
2063 3 16.722 20.909 3.173
2064 3 15.072 21.862 3.173
2065 3 15.072 19.956 3.173
2066 1 17.042 20.909 0.000
2067 1 17.753 19.679 0.000
2068 1 19.173 19.679 0.000
2069 1 19.883 20.909 0.000
2070 1 21.303 20.909 0.000
2071 1 22.013 19.679 0.000
2072 1 23.433 19.679 0.000
2073 1 24.143 20.909 0.000
2074 1 25.564 20.909 0.000
2075 1 26.274 19.679 0.000
2076 1 27.694 19.679 0.000
2077 1 28.404 20.909 0.000
2078 1 29.824 20.909 0.000
2079 1 30.534 19.679 0.000
2080 1 31.954 19.679 0.000
2081 3 31.954 19.679 -1.100
2082 1 32.665 20.909 0.000
2083 1 34.085 20.909 0.000
2084 1 34.795 19.679 0.000
2085 1 36.215 19.679 0.000
2086 1 36.925 20.909 0.000
2087 1 38.345 20.909 0.000
2088 1 39.055 19.679 0.000
2089 1 40.476 19.679 0.000
2090 1 41.186 20.909 0.000
2091 3 41.186 20.909 -1.100
2092 1 42.606 20.909 0.000
2093 1 43.316 19.679 0.000
2094 1 44.736 19.679 0.000
2095 1 45.446 20.909 0.000
2096 1 46.867 20.909 0.000
2097 2 46.867 20.909 -1.500
2098 3 47.967 20.909 -1.633
2099 3 46.317 21.862 -1.633
2100 3 46.317 19.956 -1.633
2101 1 47.577 19.679 0.000
2102 1 48.997 19.679 0.000
2103 1 49.707 20.909 0.000
2104 1 51.127 20.909 0.000
2105 1 51.837 19.679 0.000
2106 1 53.258 19.679 0.000
2107 1 53.968 20.909 0.000
2108 1 55.388 20.909 0.000
2109 1 56.098 19.679 0.000
2110 1 57.518 19.679 0.000
2111 1 58.228 20.909 0.000
2112 1 59.648 20.909 0.000
2113 1 60.358 19.679 0.000
2114 1 61.779 19.679 0.000
2115 1 62.489 20.909 0.000
2116 1 63.909 20.909 0.000
2117 1 64.619 19.679 0.000
2118 1 66.039 19.679 0.000
2119 1 66.749 20.909 0.000
2120 1 68.170 20.909 0.000
2121 1 68.880 19.679 0.000
2122 1 70.300 19.679 0.000
2123 1 71.010 20.909 0.000
2124 1 72.430 20.909 0.000
2125 1 73.140 19.679 0.000
2126 1 74.561 19.679 0.000
2127 1 75.271 20.909 0.000
2128 1 76.691 20.909 0.000
2129 1 77.401 19.679 0.000
2130 1 78.821 19.679 0.000
2131 1 79.531 20.909 0.000
2132 1 80.951 20.909 0.000
2133 1 81.662 19.679 0.000
2134 1 83.082 19.679 0.000
2135 1 83.792 20.909 0.000
2136 1 85.212 20.909 0.000
2137 1 85.922 19.679 0.000
2138 1 87.342 19.679 0.000
2139 1 88.052 20.909 0.000
2140 1 89.473 20.909 0.000
2141 1 90.183 19.679 0.000
2142 1 91.603 19.679 0.000
2143 1 92.313 20.909 0.000
2144 1 93.733 20.909 0.000
2145 1 94.443 19.679 0.000
2146 1 95.864 19.679 0.000
2147 1 96.574 20.909 0.000
2148 1 97.994 20.909 0.000
2149 1 98.704 19.679 0.000
2150 1 100.124 19.679 0.000
2151 1 100.834 20.909 0.000
2152 1 102.254 20.909 0.000
2153 1 102.965 19.679 0.000
2154 1 104.385 19.679 0.000
2155 1 105.095 20.909 0.000
2156 1 106.515 20.909 0.000
2157 1 107.225 19.679 0.000
2158 1 108.645 19.679 0.000
2159 1 109.355 20.909 0.000
2160 1 110.776 20.909 0.000
2161 1 111.486 19.679 0.000
2162 1 112.906 19.679 0.000
2163 1 113.616 20.909 0.000
2164 1 115.036 20.909 0.000
2165 1 115.746 19.679 0.000
2166 1 117.167 19.679 0.000
2167 1 117.877 20.909 0.000
2168 1 119.297 20.909 0.000
2169 1 120.007 19.679 0.000
2170 1 121.427 19.679 0.000
2171 1 122.137 20.909 0.000
2172 1 123.557 20.909 0.000
2173 3 123.557 20.909 1.100
2174 1 124.267 19.679 0.000
2175 3 124.267 19.679 1.100
2176 1 125.688 19.679 0.000
2177 1 126.398 20.909 0.000
2178 1 127.818 20.909 0.000
2179 1 128.528 19.679 0.000
2180 1 129.948 19.679 0.000
2181 1 130.658 20.909 0.000
2182 1 132.079 20.909 0.000
2183 1 132.789 19.679 0.000
2184 1 134.209 19.679 0.000
2185 1 134.919 20.909 0.000
2186 1 136.339 20.909 0.000
2187 1 137.049 19.679 0.000
2188 1 138.470 19.679 0.000
2189 1 139.180 20.909 0.000
2190 1 140.600 20.909 0.000
2191 1 141.310 19.679 0.000
2192 1 142.730 19.679 0.000
2193 1 143.440 20.909 0.000
2194 1 144.860 20.909 0.000
2195 1 145.571 19.679 0.000
2196 1 146.991 19.679 0.000
2197 1 147.701 20.909 0.000
2198 1 149.121 20.909 0.000
2199 1 149.831 19.679 0.000
2200 1 151.251 19.679 0.000
2201 1 151.961 20.909 0.000
2202 1 153.382 20.909 0.000
2203 1 154.092 19.679 0.000
2204 1 155.512 19.679 0.000
2205 1 156.222 20.909 0.000
2206 1 157.642 20.909 0.000
2207 3 157.642 20.909 -1.100
2208 1 158.352 19.679 0.000
2209 1 159.773 19.679 0.000
2210 1 160.483 20.909 0.000
2211 1 161.903 20.909 0.000
2212 1 162.613 19.679 0.000
2213 1 164.033 19.679 0.000
2214 1 164.743 20.909 0.000
2215 1 166.163 20.909 0.000
2216 1 166.874 19.679 0.000
2217 1 168.294 19.679 0.000
2218 1 169.004 20.909 0.000
2219 1 170.424 20.909 0.000
2220 1 171.134 19.679 0.000
2221 1 172.554 19.679 0.000
2222 1 173.264 20.909 0.000
2223 1 174.685 20.909 0.000
2224 1 175.395 19.679 0.000
2225 1 176.815 19.679 0.000
2226 1 177.525 20.909 0.000
2227 1 178.945 20.909 0.000
2228 1 179.655 19.679 0.000
2229 1 181.076 19.679 0.000
2230 1 181.786 20.909 0.000
2231 1 183.206 20.909 0.000
2232 1 183.916 19.679 0.000
2233 1 185.336 19.679 0.000
2234 1 186.046 20.909 0.000
2235 3 186.046 20.909 1.100
2236 1 187.466 20.909 0.000
2237 1 188.177 19.679 0.000
2238 1 189.597 19.679 0.000
2239 1 190.307 20.909 0.000
2240 1 191.727 20.909 0.000
2241 1 192.437 19.679 0.000
2242 1 193.857 19.679 0.000
2243 1 194.567 20.909 0.000
2244 1 195.988 20.909 0.000
2245 1 196.698 19.679 0.000
2246 3 196.698 19.679 1.100
2247 1 198.118 19.679 0.000
2248 1 198.828 20.909 0.000
2249 1 200.248 20.909 0.000
2250 1 200.958 19.679 0.000
2251 1 202.379 19.679 0.000
2252 1 203.089 20.909 0.000
2253 1 204.509 20.909 0.000
2254 1 205.219 19.679 0.000
2255 1 206.639 19.679 0.000
2256 1 207.349 20.909 0.000
2257 1 208.769 20.909 0.000
2258 1 209.480 19.679 0.000
2259 1 210.900 19.679 0.000
2260 1 211.610 20.909 0.000
2261 1 213.030 20.909 0.000
2262 1 213.740 19.679 0.000
2263 1 215.160 19.679 0.000
2264 1 215.870 20.909 0.000
2265 1 217.291 20.909 0.000
2266 1 218.001 19.679 0.000
2267 1 219.421 19.679 0.000
2268 1 220.131 20.909 0.000
2269 1 221.551 20.909 0.000
2270 1 222.261 19.679 0.000
2271 1 223.681 19.679 0.000
2272 1 224.392 20.909 0.000
2273 1 225.812 20.909 0.000
2274 1 226.522 19.679 0.000
2275 1 227.942 19.679 0.000
2276 1 228.652 20.909 0.000
2277 1 230.072 20.909 0.000
2278 1 230.783 19.679 0.000
2279 1 232.203 19.679 0.000
2280 1 232.913 20.909 0.000
2281 1 234.333 20.909 0.000
2282 1 235.043 19.679 0.000
2283 1 236.463 19.679 0.000
2284 1 237.173 20.909 0.000
2285 1 238.594 20.909 0.000
2286 1 239.304 19.679 0.000
2287 1 240.724 19.679 0.000
2288 1 241.434 20.909 0.000
2289 1 242.854 20.909 0.000
2290 1 243.564 19.679 0.000
2291 1 244.985 19.679 0.000
2292 1 245.695 20.909 0.000
2293 1 247.115 20.909 0.000
2294 1 247.825 19.679 0.000
2295 1 249.245 19.679 0.000
2296 1 249.955 20.909 0.000
2297 1 0.000 23.369 0.000
2298 1 0.710 22.139 0.000
2299 1 2.130 22.139 0.000
2300 1 2.840 23.369 0.000
2301 1 4.261 23.369 0.000
2302 1 4.971 22.139 0.000
2303 1 6.391 22.139 0.000
2304 1 7.101 23.369 0.000
2305 1 8.521 23.369 0.000
2306 1 9.231 22.139 0.000
2307 1 10.652 22.139 0.000
2308 1 11.362 23.369 0.000
2309 1 12.782 23.369 0.000
2310 1 13.492 22.139 0.000
2311 1 14.912 22.139 0.000
2312 1 15.622 23.369 0.000
2313 1 17.042 23.369 0.000
2314 1 17.753 22.139 0.000
2315 1 19.173 22.139 0.000
2316 1 19.883 23.369 0.000
2317 1 21.303 23.369 0.000
2318 1 22.013 22.139 0.000
2319 1 23.433 22.139 0.000
2320 1 24.143 23.369 0.000
2321 1 25.564 23.369 0.000
2322 1 26.274 22.139 0.000
2323 1 27.694 22.139 0.000
2324 1 28.404 23.369 0.000
2325 1 29.824 23.369 0.000
2326 1 30.534 22.139 0.000
2327 2 30.534 22.139 -1.500
2328 3 31.634 22.139 -1.633
2329 3 29.434 22.139 -1.633
2330 2 30.534 22.139 -3.040
2331 3 31.634 22.139 -3.173
2332 3 29.984 23.092 -3.173
2333 3 29.984 21.186 -3.173
2334 1 31.954 22.139 0.000
2335 1 32.665 23.369 0.000
2336 1 34.085 23.369 0.000
2337 1 34.795 22.139 0.000
2338 1 36.215 22.139 0.000
2339 1 36.925 23.369 0.000
2340 1 38.345 23.369 0.000
2341 1 39.055 22.139 0.000
2342 1 40.476 22.139 0.000
2343 1 41.186 23.369 0.000
2344 1 42.606 23.369 0.000
2345 1 43.316 22.139 0.000
2346 1 44.736 22.139 0.000
2347 1 45.446 23.369 0.000
2348 1 46.867 23.369 0.000
2349 1 47.577 22.139 0.000
2350 1 48.997 22.139 0.000
2351 1 49.707 23.369 0.000
2352 1 51.127 23.369 0.000
2353 1 51.837 22.139 0.000
2354 1 53.258 22.139 0.000
2355 1 53.968 23.369 0.000
2356 1 55.388 23.369 0.000
2357 1 56.098 22.139 0.000
2358 1 57.518 22.139 0.000
2359 1 58.228 23.369 0.000
2360 1 59.648 23.369 0.000
2361 1 60.358 22.139 0.000
2362 1 61.779 22.139 0.000
2363 1 62.489 23.369 0.000
2364 1 63.909 23.369 0.000
2365 1 64.619 22.139 0.000
2366 1 66.039 22.139 0.000
2367 1 66.749 23.369 0.000
2368 1 68.170 23.369 0.000
2369 1 68.880 22.139 0.000
2370 1 70.300 22.139 0.000
2371 1 71.010 23.369 0.000
2372 1 72.430 23.369 0.000
2373 1 73.140 22.139 0.000
2374 1 74.561 22.139 0.000
2375 1 75.271 23.369 0.000
2376 1 76.691 23.369 0.000
2377 1 77.401 22.139 0.000
2378 1 78.821 22.139 0.000
2379 1 79.531 23.369 0.000
2380 1 80.951 23.369 0.000
2381 1 81.662 22.139 0.000
2382 1 83.082 22.139 0.000
2383 1 83.792 23.369 0.000
2384 1 85.212 23.369 0.000
2385 1 85.922 22.139 0.000
2386 1 87.342 22.139 0.000
2387 1 88.052 23.369 0.000
2388 1 89.473 23.369 0.000
2389 1 90.183 22.139 0.000
2390 1 91.603 22.139 0.000
2391 1 92.313 23.369 0.000
2392 1 93.733 23.369 0.000
2393 1 94.443 22.139 0.000
2394 1 95.864 22.139 0.000
2395 1 96.574 23.369 0.000
2396 1 97.994 23.369 0.000
2397 1 98.704 22.139 0.000
2398 1 100.124 22.139 0.000
2399 3 100.124 22.139 1.100
2400 1 100.834 23.369 0.000
2401 1 102.254 23.369 0.000
2402 1 102.965 22.139 0.000
2403 1 104.385 22.139 0.000
2404 1 105.095 23.369 0.000
2405 1 106.515 23.369 0.000
2406 1 107.225 22.139 0.000
2407 1 108.645 22.139 0.000
2408 1 109.355 23.369 0.000
2409 1 110.776 23.369 0.000
2410 1 111.486 22.139 0.000
2411 1 112.906 22.139 0.000
2412 1 113.616 23.369 0.000
2413 1 115.036 23.369 0.000
2414 1 115.746 22.139 0.000
2415 2 115.746 22.139 1.500
2416 3 116.846 22.139 1.633
2417 3 114.646 22.139 1.633
2418 2 115.746 22.139 3.040
2419 3 116.846 22.139 3.173
2420 3 115.196 23.092 3.173
2421 3 115.196 21.186 3.173
2422 1 117.167 22.139 0.000
2423 1 117.877 23.369 0.000
2424 1 119.297 23.369 0.000
2425 1 120.007 22.139 0.000
2426 1 121.427 22.139 0.000
2427 1 122.137 23.369 0.000
2428 1 123.557 23.369 0.000
2429 1 124.267 22.139 0.000
2430 1 125.688 22.139 0.000
2431 1 126.398 23.369 0.000
2432 1 127.818 23.369 0.000
2433 1 128.528 22.139 0.000
2434 1 129.948 22.139 0.000
2435 1 130.658 23.369 0.000
2436 1 132.079 23.369 0.000
2437 1 132.789 22.139 0.000
2438 1 134.209 22.139 0.000
2439 1 134.919 23.369 0.000
2440 1 136.339 23.369 0.000
2441 1 137.049 22.139 0.000
2442 1 138.470 22.139 0.000
2443 1 139.180 23.369 0.000
2444 1 140.600 23.369 0.000
2445 1 141.310 22.139 0.000
2446 1 142.730 22.139 0.000
2447 1 143.440 23.369 0.000
2448 1 144.860 23.369 0.000
2449 1 145.571 22.139 0.000
2450 1 146.991 22.139 0.000
2451 1 147.701 23.369 0.000
2452 1 149.121 23.369 0.000
2453 1 149.831 22.139 0.000
2454 1 151.251 22.139 0.000
2455 1 151.961 23.369 0.000
2456 1 153.382 23.369 0.000
2457 1 154.092 22.139 0.000
2458 1 155.512 22.139 0.000
2459 3 155.512 22.139 -1.100
2460 1 156.222 23.369 0.000
2461 1 157.642 23.369 0.000
2462 1 158.352 22.139 0.000
2463 1 159.773 22.139 0.000
2464 1 160.483 23.369 0.000
2465 3 160.483 23.369 -1.100
2466 1 161.903 23.369 0.000
2467 1 162.613 22.139 0.000
2468 1 164.033 22.139 0.000
2469 1 164.743 23.369 0.000
2470 1 166.163 23.369 0.000
2471 1 166.874 22.139 0.000
2472 1 168.294 22.139 0.000
2473 1 169.004 23.369 0.000
2474 1 170.424 23.369 0.000
2475 1 171.134 22.139 0.000
2476 1 172.554 22.139 0.000
2477 1 173.264 23.369 0.000
2478 1 174.685 23.369 0.000
2479 1 175.395 22.139 0.000
2480 1 176.815 22.139 0.000
2481 1 177.525 23.369 0.000
2482 1 178.945 23.369 0.000
2483 1 179.655 22.139 0.000
2484 1 181.076 22.139 0.000
2485 1 181.786 23.369 0.000
2486 1 183.206 23.369 0.000
2487 1 183.916 22.139 0.000
2488 1 185.336 22.139 0.000
2489 1 186.046 23.369 0.000
2490 1 187.466 23.369 0.000
2491 1 188.177 22.139 0.000
2492 1 189.597 22.139 0.000
2493 1 190.307 23.369 0.000
2494 1 191.727 23.369 0.000
2495 1 192.437 22.139 0.000
2496 1 193.857 22.139 0.000
2497 1 194.567 23.369 0.000
2498 1 195.988 23.369 0.000
2499 1 196.698 22.139 0.000
2500 1 198.118 22.139 0.000
2501 1 198.828 23.369 0.000
2502 1 200.248 23.369 0.000
2503 1 200.958 22.139 0.000
2504 1 202.379 22.139 0.000
2505 1 203.089 23.369 0.000
2506 1 204.509 23.369 0.000
2507 1 205.219 22.139 0.000
2508 1 206.639 22.139 0.000
2509 1 207.349 23.369 0.000
2510 1 208.769 23.369 0.000
2511 1 209.480 22.139 0.000
2512 1 210.900 22.139 0.000
2513 3 210.900 22.139 1.100
2514 1 211.610 23.369 0.000
2515 1 213.030 23.369 0.000
2516 1 213.740 22.139 0.000
2517 1 215.160 22.139 0.000
2518 1 215.870 23.369 0.000
2519 1 217.291 23.369 0.000
2520 1 218.001 22.139 0.000
2521 1 219.421 22.139 0.000
2522 1 220.131 23.369 0.000
2523 1 221.551 23.369 0.000
2524 1 222.261 22.139 0.000
2525 1 223.681 22.139 0.000
2526 3 223.681 22.139 -1.100
2527 1 224.392 23.369 0.000
2528 1 225.812 23.369 0.000
2529 1 226.522 22.139 0.000
2530 1 227.942 22.139 0.000
2531 1 228.652 23.369 0.000
2532 1 230.072 23.369 0.000
2533 1 230.783 22.139 0.000
2534 1 232.203 22.139 0.000
2535 1 232.913 23.369 0.000
2536 1 234.333 23.369 0.000
2537 1 235.043 22.139 0.000
2538 1 236.463 22.139 0.000
2539 1 237.173 23.369 0.000
2540 1 238.594 23.369 0.000
2541 1 239.304 22.139 0.000
2542 1 240.724 22.139 0.000
2543 1 241.434 23.369 0.000
2544 3 241.434 23.369 1.100
2545 1 242.854 23.369 0.000
2546 1 243.564 22.139 0.000
2547 1 244.985 22.139 0.000
2548 1 245.695 23.369 0.000
2549 1 247.115 23.369 0.000
2550 1 247.825 22.139 0.000
2551 1 249.245 22.139 0.000
2552 1 249.955 23.369 0.000
2553 1 0.000 25.829 0.000
2554 1 0.710 24.599 0.000
2555 1 2.130 24.599 0.000
2556 1 2.840 25.829 0.000
2557 1 4.261 25.829 0.000
2558 1 4.971 24.599 0.000
2559 1 6.391 24.599 0.000
2560 1 7.101 25.829 0.000
2561 1 8.521 25.829 0.000
2562 1 9.231 24.599 0.000
2563 1 10.652 24.599 0.000
2564 1 11.362 25.829 0.000
2565 1 12.782 25.829 0.000
2566 1 13.492 24.599 0.000
2567 1 14.912 24.599 0.000
2568 1 15.622 25.829 0.000
2569 1 17.042 25.829 0.000
2570 1 17.753 24.599 0.000
2571 1 19.173 24.599 0.000
2572 1 19.883 25.829 0.000
2573 1 21.303 25.829 0.000
2574 1 22.013 24.599 0.000
2575 1 23.433 24.599 0.000
2576 1 24.143 25.829 0.000
2577 1 25.564 25.829 0.000
2578 1 26.274 24.599 0.000
2579 1 27.694 24.599 0.000
2580 1 28.404 25.829 0.000
2581 1 29.824 25.829 0.000
2582 1 30.534 24.599 0.000
2583 3 30.534 24.599 1.100
2584 1 31.954 24.599 0.000
2585 1 32.665 25.829 0.000
2586 3 32.665 25.829 1.100
2587 1 34.085 25.829 0.000
2588 1 34.795 24.599 0.000
2589 1 36.215 24.599 0.000
2590 1 36.925 25.829 0.000
2591 1 38.345 25.829 0.000
2592 1 39.055 24.599 0.000
2593 1 40.476 24.599 0.000
2594 1 41.186 25.829 0.000
2595 3 41.186 25.829 1.100
2596 1 42.606 25.829 0.000
2597 1 43.316 24.599 0.000
2598 1 44.736 24.599 0.000
2599 1 45.446 25.829 0.000
2600 1 46.867 25.829 0.000
2601 1 47.577 24.599 0.000
2602 1 48.997 24.599 0.000
2603 1 49.707 25.829 0.000
2604 1 51.127 25.829 0.000
2605 1 51.837 24.599 0.000
2606 1 53.258 24.599 0.000
2607 1 53.968 25.829 0.000
2608 1 55.388 25.829 0.000
2609 1 56.098 24.599 0.000
2610 1 57.518 24.599 0.000
2611 1 58.228 25.829 0.000
2612 1 59.648 25.829 0.000
2613 1 60.358 24.599 0.000
2614 1 61.779 24.599 0.000
2615 1 62.489 25.829 0.000
2616 1 63.909 25.829 0.000
2617 1 64.619 24.599 0.000
2618 1 66.039 24.599 0.000
2619 1 66.749 25.829 0.000
2620 2 66.749 25.829 1.500
2621 3 67.849 25.829 1.633
2622 3 65.649 25.829 1.633
2623 2 66.749 25.829 3.040
2624 3 67.849 25.829 3.173
2625 3 66.199 26.782 3.173
2626 3 66.199 24.876 3.173
2627 1 68.170 25.829 0.000
2628 1 68.880 24.599 0.000
2629 1 70.300 24.599 0.000
2630 1 71.010 25.829 0.000
2631 1 72.430 25.829 0.000
2632 1 73.140 24.599 0.000
2633 1 74.561 24.599 0.000
2634 1 75.271 25.829 0.000
2635 1 76.691 25.829 0.000
2636 3 76.691 25.829 1.100
2637 1 77.401 24.599 0.000
2638 1 78.821 24.599 0.000
2639 1 79.531 25.829 0.000
2640 1 80.951 25.829 0.000
2641 1 81.662 24.599 0.000
2642 1 83.082 24.599 0.000
2643 1 83.792 25.829 0.000
2644 1 85.212 25.829 0.000
2645 1 85.922 24.599 0.000
2646 1 87.342 24.599 0.000
2647 1 88.052 25.829 0.000
2648 1 89.473 25.829 0.000
2649 1 90.183 24.599 0.000
2650 1 91.603 24.599 0.000
2651 1 92.313 25.829 0.000
2652 1 93.733 25.829 0.000
2653 1 94.443 24.599 0.000
2654 1 95.864 24.599 0.000
2655 1 96.574 25.829 0.000
2656 1 97.994 25.829 0.000
2657 1 98.704 24.599 0.000
2658 1 100.124 24.599 0.000
2659 1 100.834 25.829 0.000
2660 1 102.254 25.829 0.000
2661 1 102.965 24.599 0.000
2662 1 104.385 24.599 0.000
2663 1 105.095 25.829 0.000
2664 1 106.515 25.829 0.000
2665 1 107.225 24.599 0.000
2666 1 108.645 24.599 0.000
2667 1 109.355 25.829 0.000
2668 1 110.776 25.829 0.000
2669 1 111.486 24.599 0.000
2670 1 112.906 24.599 0.000
2671 3 112.906 24.599 1.100
2672 1 113.616 25.829 0.000
2673 1 115.036 25.829 0.000
2674 1 115.746 24.599 0.000
2675 1 117.167 24.599 0.000
2676 1 117.877 25.829 0.000
2677 1 119.297 25.829 0.000
2678 1 120.007 24.599 0.000
2679 1 121.427 24.599 0.000
2680 1 122.137 25.829 0.000
2681 1 123.557 25.829 0.000
2682 1 124.267 24.599 0.000
2683 1 125.688 24.599 0.000
2684 1 126.398 25.829 0.000
2685 1 127.818 25.829 0.000
2686 1 128.528 24.599 0.000
2687 1 129.948 24.599 0.000
2688 1 130.658 25.829 0.000
2689 1 132.079 25.829 0.000
2690 1 132.789 24.599 0.000
2691 1 134.209 24.599 0.000
2692 1 134.919 25.829 0.000
2693 1 136.339 25.829 0.000
2694 1 137.049 24.599 0.000
2695 1 138.470 24.599 0.000
2696 1 139.180 25.829 0.000
2697 1 140.600 25.829 0.000
2698 1 141.310 24.599 0.000
2699 1 142.730 24.599 0.000
2700 1 143.440 25.829 0.000
2701 1 144.860 25.829 0.000
2702 1 145.571 24.599 0.000
2703 1 146.991 24.599 0.000
2704 1 147.701 25.829 0.000
2705 1 149.121 25.829 0.000
2706 1 149.831 24.599 0.000
2707 1 151.251 24.599 0.000
2708 1 151.961 25.829 0.000
2709 3 151.961 25.829 -1.100
2710 1 153.382 25.829 0.000
2711 1 154.092 24.599 0.000
2712 1 155.512 24.599 0.000
2713 1 156.222 25.829 0.000
2714 1 157.642 25.829 0.000
2715 1 158.352 24.599 0.000
2716 1 159.773 24.599 0.000
2717 1 160.483 25.829 0.000
2718 1 161.903 25.829 0.000
2719 1 162.613 24.599 0.000
2720 1 164.033 24.599 0.000
2721 1 164.743 25.829 0.000
2722 1 166.163 25.829 0.000
2723 1 166.874 24.599 0.000
2724 1 168.294 24.599 0.000
2725 2 168.294 24.599 -1.500
2726 3 169.394 24.599 -1.633
2727 3 167.744 25.552 -1.633
2728 3 167.744 23.646 -1.633
2729 1 169.004 25.829 0.000
2730 1 170.424 25.829 0.000
2731 1 171.134 24.599 0.000
2732 1 172.554 24.599 0.000
2733 1 173.264 25.829 0.000
2734 1 174.685 25.829 0.000
2735 1 175.395 24.599 0.000
2736 1 176.815 24.599 0.000
2737 3 176.815 24.599 1.100
2738 1 177.525 25.829 0.000
2739 1 178.945 25.829 0.000
2740 1 179.655 24.599 0.000
2741 1 181.076 24.599 0.000
2742 3 181.076 24.599 1.100
2743 1 181.786 25.829 0.000
2744 1 183.206 25.829 0.000
2745 1 183.916 24.599 0.000
2746 1 185.336 24.599 0.000
2747 1 186.046 25.829 0.000
2748 1 187.466 25.829 0.000
2749 1 188.177 24.599 0.000
2750 1 189.597 24.599 0.000
2751 1 190.307 25.829 0.000
2752 1 191.727 25.829 0.000
2753 1 192.437 24.599 0.000
2754 1 193.857 24.599 0.000
2755 1 194.567 25.829 0.000
2756 1 195.988 25.829 0.000
2757 1 196.698 24.599 0.000
2758 1 198.118 24.599 0.000
2759 1 198.828 25.829 0.000
2760 1 200.248 25.829 0.000
2761 1 200.958 24.599 0.000
2762 1 202.379 24.599 0.000
2763 1 203.089 25.829 0.000
2764 1 204.509 25.829 0.000
2765 1 205.219 24.599 0.000
2766 1 206.639 24.599 0.000
2767 1 207.349 25.829 0.000
2768 1 208.769 25.829 0.000
2769 1 209.480 24.599 0.000
2770 1 210.900 24.599 0.000
2771 1 211.610 25.829 0.000
2772 1 213.030 25.829 0.000
2773 1 213.740 24.599 0.000
2774 1 215.160 24.599 0.000
2775 1 215.870 25.829 0.000
2776 1 217.291 25.829 0.000
2777 1 218.001 24.599 0.000
2778 1 219.421 24.599 0.000
2779 1 220.131 25.829 0.000
2780 1 221.551 25.829 0.000
2781 1 222.261 24.599 0.000
2782 2 222.261 24.599 -1.500
2783 3 223.361 24.599 -1.633
2784 3 221.161 24.599 -1.633
2785 2 222.261 24.599 -3.040
2786 3 223.361 24.599 -3.173
2787 3 221.711 25.552 -3.173
2788 3 221.711 23.646 -3.173
2789 1 223.681 24.599 0.000
2790 1 224.392 25.829 0.000
2791 1 225.812 25.829 0.000
2792 1 226.522 24.599 0.000
2793 1 227.942 24.599 0.000
2794 1 228.652 25.829 0.000
2795 1 230.072 25.829 0.000
2796 1 230.783 24.599 0.000
2797 1 232.203 24.599 0.000
2798 1 232.913 25.829 0.000
2799 1 234.333 25.829 0.000
2800 1 235.043 24.599 0.000
2801 1 236.463 24.599 0.000
2802 1 237.173 25.829 0.000
2803 1 238.594 25.829 0.000
2804 1 239.304 24.599 0.000
2805 1 240.724 24.599 0.000
2806 1 241.434 25.829 0.000
2807 1 242.854 25.829 0.000
2808 1 243.564 24.599 0.000
2809 1 244.985 24.599 0.000
2810 1 245.695 25.829 0.000
2811 1 247.115 25.829 0.000
2812 1 247.825 24.599 0.000
2813 1 249.245 24.599 0.000
2814 1 249.955 25.829 0.000
2815 1 0.000 28.288 0.000
2816 1 0.710 27.058 0.000
2817 1 2.130 27.058 0.000
2818 1 2.840 28.288 0.000
2819 1 4.261 28.288 0.000
2820 1 4.971 27.058 0.000
2821 1 6.391 27.058 0.000
2822 1 7.101 28.288 0.000
2823 1 8.521 28.288 0.000
2824 1 9.231 27.058 0.000
2825 1 10.652 27.058 0.000
2826 1 11.362 28.288 0.000
2827 1 12.782 28.288 0.000
2828 1 13.492 27.058 0.000
2829 1 14.912 27.058 0.000
2830 1 15.622 28.288 0.000
2831 3 15.622 28.288 -1.100
2832 1 17.042 28.288 0.000
2833 1 17.753 27.058 0.000
2834 1 19.173 27.058 0.000
2835 1 19.883 28.288 0.000
2836 1 21.303 28.288 0.000
2837 1 22.013 27.058 0.000
2838 1 23.433 27.058 0.000
2839 1 24.143 28.288 0.000
2840 1 25.564 28.288 0.000
2841 1 26.274 27.058 0.000
2842 1 27.694 27.058 0.000
2843 1 28.404 28.288 0.000
2844 1 29.824 28.288 0.000
2845 1 30.534 27.058 0.000
2846 1 31.954 27.058 0.000
2847 1 32.665 28.288 0.000
2848 3 32.665 28.288 1.100
2849 1 34.085 28.288 0.000
2850 3 34.085 28.288 1.100
2851 1 34.795 27.058 0.000
2852 3 34.795 27.058 -1.100
2853 1 36.215 27.058 0.000
2854 1 36.925 28.288 0.000
2855 1 38.345 28.288 0.000
2856 1 39.055 27.058 0.000
2857 1 40.476 27.058 0.000
2858 1 41.186 28.288 0.000
2859 1 42.606 28.288 0.000
2860 1 43.316 27.058 0.000
2861 1 44.736 27.058 0.000
2862 1 45.446 28.288 0.000
2863 1 46.867 28.288 0.000
2864 1 47.577 27.058 0.000
2865 1 48.997 27.058 0.000
2866 1 49.707 28.288 0.000
2867 3 49.707 28.288 1.100
2868 1 51.127 28.288 0.000
2869 1 51.837 27.058 0.000
2870 1 53.258 27.058 0.000
2871 1 53.968 28.288 0.000
2872 1 55.388 28.288 0.000
2873 1 56.098 27.058 0.000
2874 1 57.518 27.058 0.000
2875 3 57.518 27.058 1.100
2876 1 58.228 28.288 0.000
2877 1 59.648 28.288 0.000
2878 1 60.358 27.058 0.000
2879 1 61.779 27.058 0.000
2880 1 62.489 28.288 0.000
2881 1 63.909 28.288 0.000
2882 1 64.619 27.058 0.000
2883 1 66.039 27.058 0.000
2884 1 66.749 28.288 0.000
2885 1 68.170 28.288 0.000
2886 1 68.880 27.058 0.000
2887 1 70.300 27.058 0.000
2888 1 71.010 28.288 0.000
2889 1 72.430 28.288 0.000
2890 1 73.140 27.058 0.000
2891 1 74.561 27.058 0.000
2892 1 75.271 28.288 0.000
2893 1 76.691 28.288 0.000
2894 1 77.401 27.058 0.000
2895 1 78.821 27.058 0.000
2896 1 79.531 28.288 0.000
2897 1 80.951 28.288 0.000
2898 1 81.662 27.058 0.000
2899 1 83.082 27.058 0.000
2900 1 83.792 28.288 0.000
2901 1 85.212 28.288 0.000
2902 1 85.922 27.058 0.000
2903 1 87.342 27.058 0.000
2904 1 88.052 28.288 0.000
2905 1 89.473 28.288 0.000
2906 1 90.183 27.058 0.000
2907 1 91.603 27.058 0.000
2908 1 92.313 28.288 0.000
2909 1 93.733 28.288 0.000
2910 1 94.443 27.058 0.000
2911 1 95.864 27.058 0.000
2912 1 96.574 28.288 0.000
2913 1 97.994 28.288 0.000
2914 1 98.704 27.058 0.000
2915 1 100.124 27.058 0.000
2916 1 100.834 28.288 0.000
2917 1 102.254 28.288 0.000
2918 1 102.965 27.058 0.000
2919 1 104.385 27.058 0.000
2920 1 105.095 28.288 0.000
2921 1 106.515 28.288 0.000
2922 2 106.515 28.288 1.500
2923 3 107.615 28.288 1.633
2924 3 105.965 29.241 1.633
2925 3 105.965 27.335 1.633
2926 1 107.225 27.058 0.000
2927 1 108.645 27.058 0.000
2928 1 109.355 28.288 0.000
2929 1 110.776 28.288 0.000
2930 1 111.486 27.058 0.000
2931 1 112.906 27.058 0.000
2932 1 113.616 28.288 0.000
2933 1 115.036 28.288 0.000
2934 1 115.746 27.058 0.000
2935 1 117.167 27.058 0.000
2936 1 117.877 28.288 0.000
2937 1 119.297 28.288 0.000
2938 2 119.297 28.288 1.500
2939 3 120.397 28.288 1.633
2940 3 118.747 29.241 1.633
2941 3 118.747 27.335 1.633
2942 1 120.007 27.058 0.000
2943 1 121.427 27.058 0.000
2944 1 122.137 28.288 0.000
2945 1 123.557 28.288 0.000
2946 1 124.267 27.058 0.000
2947 1 125.688 27.058 0.000
2948 1 126.398 28.288 0.000
2949 1 127.818 28.288 0.000
2950 1 128.528 27.058 0.000
2951 1 129.948 27.058 0.000
2952 1 130.658 28.288 0.000
2953 1 132.079 28.288 0.000
2954 1 132.789 27.058 0.000
2955 1 134.209 27.058 0.000
2956 1 134.919 28.288 0.000
2957 3 134.919 28.288 -1.100
2958 1 136.339 28.288 0.000
2959 1 137.049 27.058 0.000
2960 1 138.470 27.058 0.000
2961 1 139.180 28.288 0.000
2962 1 140.600 28.288 0.000
2963 1 141.310 27.058 0.000
2964 1 142.730 27.058 0.000
2965 1 143.440 28.288 0.000
2966 1 144.860 28.288 0.000
2967 1 145.571 27.058 0.000
2968 1 146.991 27.058 0.000
2969 1 147.701 28.288 0.000
2970 1 149.121 28.288 0.000
2971 1 149.831 27.058 0.000
2972 1 151.251 27.058 0.000
2973 1 151.961 28.288 0.000
2974 1 153.382 28.288 0.000
2975 1 154.092 27.058 0.000
2976 1 155.512 27.058 0.000
2977 1 156.222 28.288 0.000
2978 1 157.642 28.288 0.000
2979 1 158.352 27.058 0.000
2980 1 159.773 27.058 0.000
2981 1 160.483 28.288 0.000
2982 1 161.903 28.288 0.000
2983 1 162.613 27.058 0.000
2984 1 164.033 27.058 0.000
2985 1 164.743 28.288 0.000
2986 1 166.163 28.288 0.000
2987 1 166.874 27.058 0.000
2988 1 168.294 27.058 0.000
2989 1 169.004 28.288 0.000
2990 1 170.424 28.288 0.000
2991 1 171.134 27.058 0.000
2992 1 172.554 27.058 0.000
2993 1 173.264 28.288 0.000
2994 1 174.685 28.288 0.000
2995 1 175.395 27.058 0.000
2996 1 176.815 27.058 0.000
2997 1 177.525 28.288 0.000
2998 1 178.945 28.288 0.000
2999 1 179.655 27.058 0.000
3000 1 181.076 27.058 0.000
3001 1 181.786 28.288 0.000
3002 1 183.206 28.288 0.000
3003 1 183.916 27.058 0.000
3004 1 185.336 27.058 0.000
3005 1 186.046 28.288 0.000
3006 1 187.466 28.288 0.000
3007 1 188.177 27.058 0.000
3008 1 189.597 27.058 0.000
3009 1 190.307 28.288 0.000
3010 1 191.727 28.288 0.000
3011 1 192.437 27.058 0.000
3012 1 193.857 27.058 0.000
3013 1 194.567 28.288 0.000
3014 1 195.988 28.288 0.000
3015 1 196.698 27.058 0.000
3016 1 198.118 27.058 0.000
3017 1 198.828 28.288 0.000
3018 1 200.248 28.288 0.000
3019 1 200.958 27.058 0.000
3020 1 202.379 27.058 0.000
3021 1 203.089 28.288 0.000
3022 1 204.509 28.288 0.000
3023 1 205.219 27.058 0.000
3024 1 206.639 27.058 0.000
3025 3 206.639 27.058 1.100
3026 1 207.349 28.288 0.000
3027 1 208.769 28.288 0.000
3028 1 209.480 27.058 0.000
3029 1 210.900 27.058 0.000
3030 1 211.610 28.288 0.000
3031 1 213.030 28.288 0.000
3032 1 213.740 27.058 0.000
3033 1 215.160 27.058 0.000
3034 1 215.870 28.288 0.000
3035 1 217.291 28.288 0.000
3036 1 218.001 27.058 0.000
3037 1 219.421 27.058 0.000
3038 1 220.131 28.288 0.000
3039 1 221.551 28.288 0.000
3040 1 222.261 27.058 0.000
3041 3 222.261 27.058 -1.100
3042 1 223.681 27.058 0.000
3043 1 224.392 28.288 0.000
3044 1 225.812 28.288 0.000
3045 1 226.522 27.058 0.000
3046 1 227.942 27.058 0.000
3047 1 228.652 28.288 0.000
3048 1 230.072 28.288 0.000
3049 1 230.783 27.058 0.000
3050 1 232.203 27.058 0.000
3051 1 232.913 28.288 0.000
3052 1 234.333 28.288 0.000
3053 1 235.043 27.058 0.000
3054 1 236.463 27.058 0.000
3055 1 237.173 28.288 0.000
3056 1 238.594 28.288 0.000
3057 1 239.304 27.058 0.000
3058 1 240.724 27.058 0.000
3059 1 241.434 28.288 0.000
3060 1 242.854 28.288 0.000
3061 1 243.564 27.058 0.000
3062 1 244.985 27.058 0.000
3063 1 245.695 28.288 0.000
3064 1 247.115 28.288 0.000
3065 1 247.825 27.058 0.000
3066 1 249.245 27.058 0.000
3067 1 249.955 28.288 0.000
3068 1 0.000 30.748 0.000
3069 1 0.710 29.518 0.000
3070 1 2.130 29.518 0.000
3071 1 2.840 30.748 0.000
3072 1 4.261 30.748 0.000
3073 1 4.971 29.518 0.000
3074 1 6.391 29.518 0.000
3075 1 7.101 30.748 0.000
3076 1 8.521 30.748 0.000
3077 1 9.231 29.518 0.000
3078 1 10.652 29.518 0.000
3079 1 11.362 30.748 0.000
3080 1 12.782 30.748 0.000
3081 1 13.492 29.518 0.000
3082 1 14.912 29.518 0.000
3083 1 15.622 30.748 0.000
3084 1 17.042 30.748 0.000
3085 1 17.753 29.518 0.000
3086 1 19.173 29.518 0.000
3087 1 19.883 30.748 0.000
3088 1 21.303 30.748 0.000
3089 1 22.013 29.518 0.000
3090 3 22.013 29.518 1.100
3091 1 23.433 29.518 0.000
3092 1 24.143 30.748 0.000
3093 1 25.564 30.748 0.000
3094 1 26.274 29.518 0.000
3095 1 27.694 29.518 0.000
3096 1 28.404 30.748 0.000
3097 1 29.824 30.748 0.000
3098 1 30.534 29.518 0.000
3099 1 31.954 29.518 0.000
3100 1 32.665 30.748 0.000
3101 3 32.665 30.748 1.100
3102 1 34.085 30.748 0.000
3103 1 34.795 29.518 0.000
3104 1 36.215 29.518 0.000
3105 1 36.925 30.748 0.000
3106 1 38.345 30.748 0.000
3107 1 39.055 29.518 0.000
3108 1 40.476 29.518 0.000
3109 1 41.186 30.748 0.000
3110 1 42.606 30.748 0.000
3111 1 43.316 29.518 0.000
3112 1 44.736 29.518 0.000
3113 1 45.446 30.748 0.000
3114 1 46.867 30.748 0.000
3115 1 47.577 29.518 0.000
3116 1 48.997 29.518 0.000
3117 1 49.707 30.748 0.000
3118 1 51.127 30.748 0.000
3119 1 51.837 29.518 0.000
3120 1 53.258 29.518 0.000
3121 1 53.968 30.748 0.000
3122 1 55.388 30.748 0.000
3123 1 56.098 29.518 0.000
3124 1 57.518 29.518 0.000
3125 1 58.228 30.748 0.000
3126 1 59.648 30.748 0.000
3127 1 60.358 29.518 0.000
3128 1 61.779 29.518 0.000
3129 1 62.489 30.748 0.000
3130 1 63.909 30.748 0.000
3131 1 64.619 29.518 0.000
3132 1 66.039 29.518 0.000
3133 1 66.749 30.748 0.000
3134 1 68.170 30.748 0.000
3135 1 68.880 29.518 0.000
3136 1 70.300 29.518 0.000
3137 1 71.010 30.748 0.000
3138 1 72.430 30.748 0.000
3139 1 73.140 29.518 0.000
3140 1 74.561 29.518 0.000
3141 1 75.271 30.748 0.000
3142 1 76.691 30.748 0.000
3143 1 77.401 29.518 0.000
3144 3 77.401 29.518 1.100
3145 1 78.821 29.518 0.000
3146 1 79.531 30.748 0.000
3147 1 80.951 30.748 0.000
3148 1 81.662 29.518 0.000
3149 3 81.662 29.518 -1.100
3150 1 83.082 29.518 0.000
3151 1 83.792 30.748 0.000
3152 1 85.212 30.748 0.000
3153 1 85.922 29.518 0.000
3154 1 87.342 29.518 0.000
3155 2 87.342 29.518 1.500
3156 3 88.442 29.518 1.633
3157 3 86.242 29.518 1.633
3158 2 87.342 29.518 3.040
3159 3 88.442 29.518 3.173
3160 3 86.792 30.471 3.173
3161 3 86.792 28.565 3.173
3162 1 88.052 30.748 0.000
3163 1 89.473 30.748 0.000
3164 1 90.183 29.518 0.000
3165 1 91.603 29.518 0.000
3166 1 92.313 30.748 0.000
3167 1 93.733 30.748 0.000
3168 1 94.443 29.518 0.000
3169 1 95.864 29.518 0.000
3170 1 96.574 30.748 0.000
3171 1 97.994 30.748 0.000
3172 3 97.994 30.748 1.100
3173 1 98.704 29.518 0.000
3174 1 100.124 29.518 0.000
3175 1 100.834 30.748 0.000
3176 1 102.254 30.748 0.000
3177 1 102.965 29.518 0.000
3178 1 104.385 29.518 0.000
3179 1 105.095 30.748 0.000
3180 1 106.515 30.748 0.000
3181 1 107.225 29.518 0.000
3182 3 107.225 29.518 -1.100
3183 1 108.645 29.518 0.000
3184 1 109.355 30.748 0.000
3185 1 110.776 30.748 0.000
3186 1 111.486 29.518 0.000
3187 1 112.906 29.518 0.000
3188 1 113.616 30.748 0.000
3189 1 115.036 30.748 0.000
3190 1 115.746 29.518 0.000
3191 1 117.167 29.518 0.000
3192 1 117.877 30.748 0.000
3193 1 119.297 30.748 0.000
3194 1 120.007 29.518 0.000
3195 1 121.427 29.518 0.000
3196 1 122.137 30.748 0.000
3197 1 123.557 30.748 0.000
3198 1 124.267 29.518 0.000
3199 1 125.688 29.518 0.000
3200 1 126.398 30.748 0.000
3201 1 127.818 30.748 0.000
3202 1 128.528 29.518 0.000
3203 1 129.948 29.518 0.000
3204 1 130.658 30.748 0.000
3205 1 132.079 30.748 0.000
3206 1 132.789 29.518 0.000
3207 1 134.209 29.518 0.000
3208 1 134.919 30.748 0.000
3209 1 136.339 30.748 0.000
3210 1 137.049 29.518 0.000
3211 1 138.470 29.518 0.000
3212 2 138.470 29.518 1.500
3213 3 139.570 29.518 1.633
3214 3 137.370 29.518 1.633
3215 2 138.470 29.518 3.040
3216 3 139.570 29.518 3.173
3217 3 137.920 30.471 3.173
3218 3 137.920 28.565 3.173
3219 1 139.180 30.748 0.000
3220 1 140.600 30.748 0.000
3221 1 141.310 29.518 0.000
3222 1 142.730 29.518 0.000
3223 1 143.440 30.748 0.000
3224 1 144.860 30.748 0.000
3225 1 145.571 29.518 0.000
3226 1 146.991 29.518 0.000
3227 1 147.701 30.748 0.000
3228 1 149.121 30.748 0.000
3229 1 149.831 29.518 0.000
3230 1 151.251 29.518 0.000
3231 1 151.961 30.748 0.000
3232 1 153.382 30.748 0.000
3233 1 154.092 29.518 0.000
3234 1 155.512 29.518 0.000
3235 1 156.222 30.748 0.000
3236 1 157.642 30.748 0.000
3237 2 157.642 30.748 1.500
3238 3 158.742 30.748 1.633
3239 3 156.542 30.748 1.633
3240 2 157.642 30.748 3.040
3241 3 158.742 30.748 3.173
3242 3 157.092 31.701 3.173
3243 3 157.092 29.795 3.173
3244 1 158.352 29.518 0.000
3245 1 159.773 29.518 0.000
3246 1 160.483 30.748 0.000
3247 3 160.483 30.748 1.100
3248 1 161.903 30.748 0.000
3249 1 162.613 29.518 0.000
3250 1 164.033 29.518 0.000
3251 1 164.743 30.748 0.000
3252 1 166.163 30.748 0.000
3253 1 166.874 29.518 0.000
3254 1 168.294 29.518 0.000
3255 1 169.004 30.748 0.000
3256 1 170.424 30.748 0.000
3257 1 171.134 29.518 0.000
3258 1 172.554 29.518 0.000
3259 1 173.264 30.748 0.000
3260 1 174.685 30.748 0.000
3261 1 175.395 29.518 0.000
3262 1 176.815 29.518 0.000
3263 1 177.525 30.748 0.000
3264 1 178.945 30.748 0.000
3265 1 179.655 29.518 0.000
3266 1 181.076 29.518 0.000
3267 1 181.786 30.748 0.000
3268 1 183.206 30.748 0.000
3269 1 183.916 29.518 0.000
3270 1 185.336 29.518 0.000
3271 1 186.046 30.748 0.000
3272 1 187.466 30.748 0.000
3273 1 188.177 29.518 0.000
3274 1 189.597 29.518 0.000
3275 1 190.307 30.748 0.000
3276 1 191.727 30.748 0.000
3277 1 192.437 29.518 0.000
3278 1 193.857 29.518 0.000
3279 2 193.857 29.518 -1.500
3280 3 194.957 29.518 -1.633
3281 3 192.757 29.518 -1.633
3282 2 193.857 29.518 -3.040
3283 3 194.957 29.518 -3.173
3284 3 193.307 30.471 -3.173
3285 3 193.307 28.565 -3.173
3286 1 194.567 30.748 0.000
3287 1 195.988 30.748 0.000
3288 1 196.698 29.518 0.000
3289 1 198.118 29.518 0.000
3290 1 198.828 30.748 0.000
3291 1 200.248 30.748 0.000
3292 1 200.958 29.518 0.000
3293 1 202.379 29.518 0.000
3294 1 203.089 30.748 0.000
3295 1 204.509 30.748 0.000
3296 1 205.219 29.518 0.000
3297 1 206.639 29.518 0.000
3298 1 207.349 30.748 0.000
3299 1 208.769 30.748 0.000
3300 1 209.480 29.518 0.000
3301 1 210.900 29.518 0.000
3302 1 211.610 30.748 0.000
3303 1 213.030 30.748 0.000
3304 1 213.740 29.518 0.000
3305 1 215.160 29.518 0.000
3306 1 215.870 30.748 0.000
3307 1 217.291 30.748 0.000
3308 3 217.291 30.748 1.100
3309 1 218.001 29.518 0.000
3310 1 219.421 29.518 0.000
3311 1 220.131 30.748 0.000
3312 1 221.551 30.748 0.000
3313 1 222.261 29.518 0.000
3314 1 223.681 29.518 0.000
3315 1 224.392 30.748 0.000
3316 1 225.812 30.748 0.000
3317 1 226.522 29.518 0.000
3318 1 227.942 29.518 0.000
3319 1 228.652 30.748 0.000
3320 1 230.072 30.748 0.000
3321 3 230.072 30.748 1.100
3322 1 230.783 29.518 0.000
3323 1 232.203 29.518 0.000
3324 1 232.913 30.748 0.000
3325 1 234.333 30.748 0.000
3326 1 235.043 29.518 0.000
3327 1 236.463 29.518 0.000
3328 1 237.173 30.748 0.000
3329 1 238.594 30.748 0.000
3330 1 239.304 29.518 0.000
3331 1 240.724 29.518 0.000
3332 1 241.434 30.748 0.000
3333 1 242.854 30.748 0.000
3334 1 243.564 29.518 0.000
3335 1 244.985 29.518 0.000
3336 1 245.695 30.748 0.000
3337 1 247.115 30.748 0.000
3338 1 247.825 29.518 0.000
3339 1 249.245 29.518 0.000
3340 1 249.955 30.748 0.000
3341 1 0.000 33.208 0.000
3342 1 0.710 31.978 0.000
3343 1 2.130 31.978 0.000
3344 1 2.840 33.208 0.000
3345 1 4.261 33.208 0.000
3346 1 4.971 31.978 0.000
3347 1 6.391 31.978 0.000
3348 1 7.101 33.208 0.000
3349 1 8.521 33.208 0.000
3350 1 9.231 31.978 0.000
3351 1 10.652 31.978 0.000
3352 1 11.362 33.208 0.000
3353 1 12.782 33.208 0.000
3354 1 13.492 31.978 0.000
3355 1 14.912 31.978 0.000
3356 1 15.622 33.208 0.000
3357 1 17.042 33.208 0.000
3358 1 17.753 31.978 0.000
3359 1 19.173 31.978 0.000
3360 1 19.883 33.208 0.000
3361 1 21.303 33.208 0.000
3362 1 22.013 31.978 0.000
3363 1 23.433 31.978 0.000
3364 1 24.143 33.208 0.000
3365 1 25.564 33.208 0.000
3366 1 26.274 31.978 0.000
3367 3 26.274 31.978 1.100
3368 1 27.694 31.978 0.000
3369 1 28.404 33.208 0.000
3370 1 29.824 33.208 0.000
3371 1 30.534 31.978 0.000
3372 1 31.954 31.978 0.000
3373 1 32.665 33.208 0.000
3374 1 34.085 33.208 0.000
3375 1 34.795 31.978 0.000
3376 1 36.215 31.978 0.000
3377 1 36.925 33.208 0.000
3378 1 38.345 33.208 0.000
3379 1 39.055 31.978 0.000
3380 1 40.476 31.978 0.000
3381 1 41.186 33.208 0.000
3382 3 41.186 33.208 1.100
3383 1 42.606 33.208 0.000
3384 3 42.606 33.208 -1.100
3385 1 43.316 31.978 0.000
3386 1 44.736 31.978 0.000
3387 1 45.446 33.208 0.000
3388 1 46.867 33.208 0.000
3389 1 47.577 31.978 0.000
3390 1 48.997 31.978 0.000
3391 1 49.707 33.208 0.000
3392 1 51.127 33.208 0.000
3393 1 51.837 31.978 0.000
3394 1 53.258 31.978 0.000
3395 1 53.968 33.208 0.000
3396 1 55.388 33.208 0.000
3397 1 56.098 31.978 0.000
3398 1 57.518 31.978 0.000
3399 3 57.518 31.978 1.100
3400 1 58.228 33.208 0.000
3401 1 59.648 33.208 0.000
3402 1 60.358 31.978 0.000
3403 1 61.779 31.978 0.000
3404 1 62.489 33.208 0.000
3405 1 63.909 33.208 0.000
3406 1 64.619 31.978 0.000
3407 1 66.039 31.978 0.000
3408 1 66.749 33.208 0.000
3409 1 68.170 33.208 0.000
3410 1 68.880 31.978 0.000
3411 1 70.300 31.978 0.000
3412 1 71.010 33.208 0.000
3413 1 72.430 33.208 0.000
3414 1 73.140 31.978 0.000
3415 1 74.561 31.978 0.000
3416 1 75.271 33.208 0.000
3417 1 76.691 33.208 0.000
3418 1 77.401 31.978 0.000
3419 1 78.821 31.978 0.000
3420 1 79.531 33.208 0.000
3421 1 80.951 33.208 0.000
3422 1 81.662 31.978 0.000
3423 3 81.662 31.978 -1.100
3424 1 83.082 31.978 0.000
3425 1 83.792 33.208 0.000
3426 1 85.212 33.208 0.000
3427 1 85.922 31.978 0.000
3428 1 87.342 31.978 0.000
3429 1 88.052 33.208 0.000
3430 1 89.473 33.208 0.000
3431 1 90.183 31.978 0.000
3432 1 91.603 31.978 0.000
3433 1 92.313 33.208 0.000
3434 1 93.733 33.208 0.000
3435 1 94.443 31.978 0.000
3436 1 95.864 31.978 0.000
3437 1 96.574 33.208 0.000
3438 1 97.994 33.208 0.000
3439 1 98.704 31.978 0.000
3440 1 100.124 31.978 0.000
3441 1 100.834 33.208 0.000
3442 1 102.254 33.208 0.000
3443 1 102.965 31.978 0.000
3444 1 104.385 31.978 0.000
3445 1 105.095 33.208 0.000
3446 1 106.515 33.208 0.000
3447 1 107.225 31.978 0.000
3448 1 108.645 31.978 0.000
3449 1 109.355 33.208 0.000
3450 1 110.776 33.208 0.000
3451 1 111.486 31.978 0.000
3452 1 112.906 31.978 0.000
3453 1 113.616 33.208 0.000
3454 1 115.036 33.208 0.000
3455 1 115.746 31.978 0.000
3456 1 117.167 31.978 0.000
3457 1 117.877 33.208 0.000
3458 1 119.297 33.208 0.000
3459 1 120.007 31.978 0.000
3460 1 121.427 31.978 0.000
3461 1 122.137 33.208 0.000
3462 1 123.557 33.208 0.000
3463 1 124.267 31.978 0.000
3464 1 125.688 31.978 0.000
3465 1 126.398 33.208 0.000
3466 1 127.818 33.208 0.000
3467 1 128.528 31.978 0.000
3468 1 129.948 31.978 0.000
3469 1 130.658 33.208 0.000
3470 1 132.079 33.208 0.000
3471 1 132.789 31.978 0.000
3472 1 134.209 31.978 0.000
3473 1 134.919 33.208 0.000
3474 1 136.339 33.208 0.000
3475 1 137.049 31.978 0.000
3476 1 138.470 31.978 0.000
3477 1 139.180 33.208 0.000
3478 1 140.600 33.208 0.000
3479 1 141.310 31.978 0.000
3480 1 142.730 31.978 0.000
3481 2 142.730 31.978 1.500
3482 3 143.830 31.978 1.633
3483 3 142.180 32.931 1.633
3484 3 142.180 31.025 1.633
3485 1 143.440 33.208 0.000
3486 1 144.860 33.208 0.000
3487 1 145.571 31.978 0.000
3488 1 146.991 31.978 0.000
3489 1 147.701 33.208 0.000
3490 1 149.121 33.208 0.000
3491 1 149.831 31.978 0.000
3492 1 151.251 31.978 0.000
3493 1 151.961 33.208 0.000
3494 1 153.382 33.208 0.000
3495 1 154.092 31.978 0.000
3496 1 155.512 31.978 0.000
3497 1 156.222 33.208 0.000
3498 1 157.642 33.208 0.000
3499 1 158.352 31.978 0.000
3500 1 159.773 31.978 0.000
3501 1 160.483 33.208 0.000
3502 1 161.903 33.208 0.000
3503 1 162.613 31.978 0.000
3504 1 164.033 31.978 0.000
3505 3 164.033 31.978 1.100
3506 1 164.743 33.208 0.000
3507 1 166.163 33.208 0.000
3508 1 166.874 31.978 0.000
3509 1 168.294 31.978 0.000
3510 1 169.004 33.208 0.000
3511 1 170.424 33.208 0.000
3512 1 171.134 31.978 0.000
3513 1 172.554 31.978 0.000
3514 1 173.264 33.208 0.000
3515 1 174.685 33.208 0.000
3516 1 175.395 31.978 0.000
3517 1 176.815 31.978 0.000
3518 1 177.525 33.208 0.000
3519 1 178.945 33.208 0.000
3520 1 179.655 31.978 0.000
3521 1 181.076 31.978 0.000
3522 1 181.786 33.208 0.000
3523 1 183.206 33.208 0.000
3524 1 183.916 31.978 0.000
3525 1 185.336 31.978 0.000
3526 1 186.046 33.208 0.000
3527 1 187.466 33.208 0.000
3528 1 188.177 31.978 0.000
3529 1 189.597 31.978 0.000
3530 1 190.307 33.208 0.000
3531 1 191.727 33.208 0.000
3532 1 192.437 31.978 0.000
3533 1 193.857 31.978 0.000
3534 1 194.567 33.208 0.000
3535 1 195.988 33.208 0.000
3536 1 196.698 31.978 0.000
3537 1 198.118 31.978 0.000
3538 1 198.828 33.208 0.000
3539 1 200.248 33.208 0.000
3540 1 200.958 31.978 0.000
3541 1 202.379 31.978 0.000
3542 1 203.089 33.208 0.000
3543 1 204.509 33.208 0.000
3544 1 205.219 31.978 0.000
3545 1 206.639 31.978 0.000
3546 1 207.349 33.208 0.000
3547 1 208.769 33.208 0.000
3548 1 209.480 31.978 0.000
3549 1 210.900 31.978 0.000
3550 1 211.610 33.208 0.000
3551 1 213.030 33.208 0.000
3552 1 213.740 31.978 0.000
3553 3 213.740 31.978 -1.100
3554 1 215.160 31.978 0.000
3555 1 215.870 33.208 0.000
3556 1 217.291 33.208 0.000
3557 1 218.001 31.978 0.000
3558 1 219.421 31.978 0.000
3559 1 220.131 33.208 0.000
3560 1 221.551 33.208 0.000
3561 1 222.261 31.978 0.000
3562 1 223.681 31.978 0.000
3563 1 224.392 33.208 0.000
3564 1 225.812 33.208 0.000
3565 1 226.522 31.978 0.000
3566 1 227.942 31.978 0.000
3567 1 228.652 33.208 0.000
3568 1 230.072 33.208 0.000
3569 1 230.783 31.978 0.000
3570 1 232.203 31.978 0.000
3571 1 232.913 33.208 0.000
3572 1 234.333 33.208 0.000
3573 1 235.043 31.978 0.000
3574 1 236.463 31.978 0.000
3575 1 237.173 33.208 0.000
3576 1 238.594 33.208 0.000
3577 1 239.304 31.978 0.000
3578 1 240.724 31.978 0.000
3579 1 241.434 33.208 0.000
3580 1 242.854 33.208 0.000
3581 1 243.564 31.978 0.000
3582 1 244.985 31.978 0.000
3583 3 244.985 31.978 -1.100
3584 1 245.695 33.208 0.000
3585 2 245.695 33.208 -1.500
3586 3 246.795 33.208 -1.633
3587 3 245.145 34.161 -1.633
3588 3 245.145 32.255 -1.633
3589 1 247.115 33.208 0.000
3590 1 247.825 31.978 0.000
3591 1 249.245 31.978 0.000
3592 1 249.955 33.208 0.000
3593 1 0.000 35.668 0.000
3594 1 0.710 34.438 0.000
3595 1 2.130 34.438 0.000
3596 1 2.840 35.668 0.000
3597 1 4.261 35.668 0.000
3598 1 4.971 34.438 0.000
3599 1 6.391 34.438 0.000
3600 1 7.101 35.668 0.000
3601 1 8.521 35.668 0.000
3602 1 9.231 34.438 0.000
3603 1 10.652 34.438 0.000
3604 1 11.362 35.668 0.000
3605 1 12.782 35.668 0.000
3606 1 13.492 34.438 0.000
3607 3 13.492 34.438 1.100
3608 1 14.912 34.438 0.000
3609 1 15.622 35.668 0.000
3610 1 17.042 35.668 0.000
3611 1 17.753 34.438 0.000
3612 1 19.173 34.438 0.000
3613 1 19.883 35.668 0.000
3614 1 21.303 35.668 0.000
3615 1 22.013 34.438 0.000
3616 1 23.433 34.438 0.000
3617 1 24.143 35.668 0.000
3618 1 25.564 35.668 0.000
3619 1 26.274 34.438 0.000
3620 1 27.694 34.438 0.000
3621 1 28.404 35.668 0.000
3622 1 29.824 35.668 0.000
3623 1 30.534 34.438 0.000
3624 1 31.954 34.438 0.000
3625 1 32.665 35.668 0.000
3626 1 34.085 35.668 0.000
3627 1 34.795 34.438 0.000
3628 1 36.215 34.438 0.000
3629 1 36.925 35.668 0.000
3630 1 38.345 35.668 0.000
3631 1 39.055 34.438 0.000
3632 1 40.476 34.438 0.000
3633 1 41.186 35.668 0.000
3634 1 42.606 35.668 0.000
3635 1 43.316 34.438 0.000
3636 1 44.736 34.438 0.000
3637 1 45.446 35.668 0.000
3638 1 46.867 35.668 0.000
3639 1 47.577 34.438 0.000
3640 1 48.997 34.438 0.000
3641 1 49.707 35.668 0.000
3642 1 51.127 35.668 0.000
3643 1 51.837 34.438 0.000
3644 1 53.258 34.438 0.000
3645 1 53.968 35.668 0.000
3646 1 55.388 35.668 0.000
3647 1 56.098 34.438 0.000
3648 1 57.518 34.438 0.000
3649 1 58.228 35.668 0.000
3650 1 59.648 35.668 0.000
3651 1 60.358 34.438 0.000
3652 1 61.779 34.438 0.000
3653 1 62.489 35.668 0.000
3654 1 63.909 35.668 0.000
3655 1 64.619 34.438 0.000
3656 1 66.039 34.438 0.000
3657 1 66.749 35.668 0.000
3658 1 68.170 35.668 0.000
3659 1 68.880 34.438 0.000
3660 1 70.300 34.438 0.000
3661 1 71.010 35.668 0.000
3662 1 72.430 35.668 0.000
3663 1 73.140 34.438 0.000
3664 1 74.561 34.438 0.000
3665 1 75.271 35.668 0.000
3666 1 76.691 35.668 0.000
3667 1 77.401 34.438 0.000
3668 1 78.821 34.438 0.000
3669 1 79.531 35.668 0.000
3670 1 80.951 35.668 0.000
3671 1 81.662 34.438 0.000
3672 1 83.082 34.438 0.000
3673 1 83.792 35.668 0.000
3674 1 85.212 35.668 0.000
3675 2 85.212 35.668 -1.500
3676 3 86.312 35.668 -1.633
3677 3 84.112 35.668 -1.633
3678 2 85.212 35.668 -3.040
3679 3 86.312 35.668 -3.173
3680 3 84.662 36.621 -3.173
3681 3 84.662 34.715 -3.173
3682 1 85.922 34.438 0.000
3683 1 87.342 34.438 0.000
3684 1 88.052 35.668 0.000
3685 1 89.473 35.668 0.000
3686 1 90.183 34.438 0.000
3687 1 91.603 34.438 0.000
3688 1 92.313 35.668 0.000
3689 1 93.733 35.668 0.000
3690 1 94.443 34.438 0.000
3691 1 95.864 34.438 0.000
3692 1 96.574 35.668 0.000
3693 1 97.994 35.668 0.000
3694 1 98.704 34.438 0.000
3695 1 100.124 34.438 0.000
3696 1 100.834 35.668 0.000
3697 1 102.254 35.668 0.000
3698 1 102.965 34.438 0.000
3699 1 104.385 34.438 0.000
3700 1 105.095 35.668 0.000
3701 1 106.515 35.668 0.000
3702 1 107.225 34.438 0.000
3703 1 108.645 34.438 0.000
3704 1 109.355 35.668 0.000
3705 1 110.776 35.668 0.000
3706 1 111.486 34.438 0.000
3707 1 112.906 34.438 0.000
3708 1 113.616 35.668 0.000
3709 1 115.036 35.668 0.000
3710 1 115.746 34.438 0.000
3711 1 117.167 34.438 0.000
3712 1 117.877 35.668 0.000
3713 1 119.297 35.668 0.000
3714 1 120.007 34.438 0.000
3715 1 121.427 34.438 0.000
3716 1 122.137 35.668 0.000
3717 1 123.557 35.668 0.000
3718 1 124.267 34.438 0.000
3719 1 125.688 34.438 0.000
3720 1 126.398 35.668 0.000
3721 1 127.818 35.668 0.000
3722 1 128.528 34.438 0.000
3723 2 128.528 34.438 -1.500
3724 3 129.628 34.438 -1.633
3725 3 127.978 35.391 -1.633
3726 3 127.978 33.485 -1.633
3727 1 129.948 34.438 0.000
3728 1 130.658 35.668 0.000
3729 1 132.079 35.668 0.000
3730 1 132.789 34.438 0.000
3731 1 134.209 34.438 0.000
3732 1 134.919 35.668 0.000
3733 1 136.339 35.668 0.000
3734 1 137.049 34.438 0.000
3735 1 138.470 34.438 0.000
3736 1 139.180 35.668 0.000
3737 1 140.600 35.668 0.000
3738 1 141.310 34.438 0.000
3739 1 142.730 34.438 0.000
3740 1 143.440 35.668 0.000
3741 1 144.860 35.668 0.000
3742 1 145.571 34.438 0.000
3743 1 146.991 34.438 0.000
3744 1 147.701 35.668 0.000
3745 1 149.121 35.668 0.000
3746 1 149.831 34.438 0.000
3747 1 151.251 34.438 0.000
3748 1 151.961 35.668 0.000
3749 1 153.382 35.668 0.000
3750 3 153.382 35.668 1.100
3751 1 154.092 34.438 0.000
3752 1 155.512 34.438 0.000
3753 1 156.222 35.668 0.000
3754 1 157.642 35.668 0.000
3755 1 158.352 34.438 0.000
3756 1 159.773 34.438 0.000
3757 1 160.483 35.668 0.000
3758 3 160.483 35.668 -1.100
3759 1 161.903 35.668 0.000
3760 1 162.613 34.438 0.000
3761 1 164.033 34.438 0.000
3762 1 164.743 35.668 0.000
3763 1 166.163 35.668 0.000
3764 1 166.874 34.438 0.000
3765 1 168.294 34.438 0.000
3766 1 169.004 35.668 0.000
3767 3 169.004 35.668 -1.100
3768 1 170.424 35.668 0.000
3769 1 171.134 34.438 0.000
3770 1 172.554 34.438 0.000
3771 1 173.264 35.668 0.000
3772 1 174.685 35.668 0.000
3773 1 175.395 34.438 0.000
3774 1 176.815 34.438 0.000
3775 1 177.525 35.668 0.000
3776 1 178.945 35.668 0.000
3777 1 179.655 34.438 0.000
3778 1 181.076 34.438 0.000
3779 1 181.786 35.668 0.000
3780 1 183.206 35.668 0.000
3781 1 183.916 34.438 0.000
3782 1 185.336 34.438 0.000
3783 1 186.046 35.668 0.000
3784 1 187.466 35.668 0.000
3785 1 188.177 34.438 0.000
3786 1 189.597 34.438 0.000
3787 1 190.307 35.668 0.000
3788 1 191.727 35.668 0.000
3789 3 191.727 35.668 -1.100
3790 1 192.437 34.438 0.000
3791 1 193.857 34.438 0.000
3792 1 194.567 35.668 0.000
3793 1 195.988 35.668 0.000
3794 1 196.698 34.438 0.000
3795 1 198.118 34.438 0.000
3796 1 198.828 35.668 0.000
3797 1 200.248 35.668 0.000
3798 1 200.958 34.438 0.000
3799 1 202.379 34.438 0.000
3800 1 203.089 35.668 0.000
3801 1 204.509 35.668 0.000
3802 3 204.509 35.668 -1.100
3803 1 205.219 34.438 0.000
3804 1 206.639 34.438 0.000
3805 1 207.349 35.668 0.000
3806 1 208.769 35.668 0.000
3807 3 208.769 35.668 -1.100
3808 1 209.480 34.438 0.000
3809 1 210.900 34.438 0.000
3810 1 211.610 35.668 0.000
3811 1 213.030 35.668 0.000
3812 1 213.740 34.438 0.000
3813 1 215.160 34.438 0.000
3814 1 215.870 35.668 0.000
3815 1 217.291 35.668 0.000
3816 1 218.001 34.438 0.000
3817 1 219.421 34.438 0.000
3818 1 220.131 35.668 0.000
3819 1 221.551 35.668 0.000
3820 1 222.261 34.438 0.000
3821 1 223.681 34.438 0.000
3822 1 224.392 35.668 0.000
3823 3 224.392 35.668 1.100
3824 1 225.812 35.668 0.000
3825 1 226.522 34.438 0.000
3826 1 227.942 34.438 0.000
3827 1 228.652 35.668 0.000
3828 1 230.072 35.668 0.000
3829 1 230.783 34.438 0.000
3830 1 232.203 34.438 0.000
3831 1 232.913 35.668 0.000
3832 1 234.333 35.668 0.000
3833 1 235.043 34.438 0.000
3834 1 236.463 34.438 0.000
3835 1 237.173 35.668 0.000
3836 1 238.594 35.668 0.000
3837 1 239.304 34.438 0.000
3838 1 240.724 34.438 0.000
3839 1 241.434 35.668 0.000
3840 2 241.434 35.668 1.500
3841 3 242.534 35.668 1.633
3842 3 240.884 36.621 1.633
3843 3 240.884 34.715 1.633
3844 1 242.854 35.668 0.000
3845 1 243.564 34.438 0.000
3846 1 244.985 34.438 0.000
3847 1 245.695 35.668 0.000
3848 1 247.115 35.668 0.000
3849 1 247.825 34.438 0.000
3850 1 249.245 34.438 0.000
3851 1 249.955 35.668 0.000
3852 1 0.000 38.128 0.000
3853 1 0.710 36.898 0.000
3854 1 2.130 36.898 0.000
3855 1 2.840 38.128 0.000
3856 3 2.840 38.128 -1.100
3857 1 4.261 38.128 0.000
3858 1 4.971 36.898 0.000
3859 1 6.391 36.898 0.000
3860 1 7.101 38.128 0.000
3861 1 8.521 38.128 0.000
3862 1 9.231 36.898 0.000
3863 1 10.652 36.898 0.000
3864 1 11.362 38.128 0.000
3865 1 12.782 38.128 0.000
3866 1 13.492 36.898 0.000
3867 1 14.912 36.898 0.000
3868 1 15.622 38.128 0.000
3869 3 15.622 38.128 1.100
3870 1 17.042 38.128 0.000
3871 1 17.753 36.898 0.000
3872 1 19.173 36.898 0.000
3873 1 19.883 38.128 0.000
3874 1 21.303 38.128 0.000
3875 1 22.013 36.898 0.000
3876 1 23.433 36.898 0.000
3877 1 24.143 38.128 0.000
3878 1 25.564 38.128 0.000
3879 1 26.274 36.898 0.000
3880 1 27.694 36.898 0.000
3881 1 28.404 38.128 0.000
3882 1 29.824 38.128 0.000
3883 1 30.534 36.898 0.000
3884 1 31.954 36.898 0.000
3885 1 32.665 38.128 0.000
3886 1 34.085 38.128 0.000
3887 1 34.795 36.898 0.000
3888 1 36.215 36.898 0.000
3889 1 36.925 38.128 0.000
3890 1 38.345 38.128 0.000
3891 1 39.055 36.898 0.000
3892 1 40.476 36.898 0.000
3893 1 41.186 38.128 0.000
3894 1 42.606 38.128 0.000
3895 1 43.316 36.898 0.000
3896 1 44.736 36.898 0.000
3897 1 45.446 38.128 0.000
3898 1 46.867 38.128 0.000
3899 1 47.577 36.898 0.000
3900 1 48.997 36.898 0.000
3901 1 49.707 38.128 0.000
3902 1 51.127 38.128 0.000
3903 1 51.837 36.898 0.000
3904 1 53.258 36.898 0.000
3905 1 53.968 38.128 0.000
3906 1 55.388 38.128 0.000
3907 1 56.098 36.898 0.000
3908 1 57.518 36.898 0.000
3909 1 58.228 38.128 0.000
3910 1 59.648 38.128 0.000
3911 1 60.358 36.898 0.000
3912 1 61.779 36.898 0.000
3913 1 62.489 38.128 0.000
3914 1 63.909 38.128 0.000
3915 2 63.909 38.128 -1.500
3916 3 65.009 38.128 -1.633
3917 3 62.809 38.128 -1.633
3918 2 63.909 38.128 -3.040
3919 3 65.009 38.128 -3.173
3920 3 63.359 39.081 -3.173
3921 3 63.359 37.175 -3.173
3922 1 64.619 36.898 0.000
3923 1 66.039 36.898 0.000
3924 1 66.749 38.128 0.000
3925 1 68.170 38.128 0.000
3926 1 68.880 36.898 0.000
3927 1 70.300 36.898 0.000
3928 1 71.010 38.128 0.000
3929 1 72.430 38.128 0.000
3930 1 73.140 36.898 0.000
3931 1 74.561 36.898 0.000
3932 1 75.271 38.128 0.000
3933 1 76.691 38.128 0.000
3934 1 77.401 36.898 0.000
3935 1 78.821 36.898 0.000
3936 1 79.531 38.128 0.000
3937 1 80.951 38.128 0.000
3938 1 81.662 36.898 0.000
3939 1 83.082 36.898 0.000
3940 1 83.792 38.128 0.000
3941 1 85.212 38.128 0.000
3942 1 85.922 36.898 0.000
3943 1 87.342 36.898 0.000
3944 1 88.052 38.128 0.000
3945 1 89.473 38.128 0.000
3946 1 90.183 36.898 0.000
3947 1 91.603 36.898 0.000
3948 1 92.313 38.128 0.000
3949 1 93.733 38.128 0.000
3950 3 93.733 38.128 -1.100
3951 1 94.443 36.898 0.000
3952 1 95.864 36.898 0.000
3953 1 96.574 38.128 0.000
3954 1 97.994 38.128 0.000
3955 1 98.704 36.898 0.000
3956 1 100.124 36.898 0.000
3957 1 100.834 38.128 0.000
3958 1 102.254 38.128 0.000
3959 1 102.965 36.898 0.000
3960 1 104.385 36.898 0.000
3961 1 105.095 38.128 0.000
3962 1 106.515 38.128 0.000
3963 1 107.225 36.898 0.000
3964 1 108.645 36.898 0.000
3965 1 109.355 38.128 0.000
3966 1 110.776 38.128 0.000
3967 1 111.486 36.898 0.000
3968 1 112.906 36.898 0.000
3969 1 113.616 38.128 0.000
3970 1 115.036 38.128 0.000
3971 1 115.746 36.898 0.000
3972 1 117.167 36.898 0.000
3973 1 117.877 38.128 0.000
3974 1 119.297 38.128 0.000
3975 1 120.007 36.898 0.000
3976 1 121.427 36.898 0.000
3977 1 122.137 38.128 0.000
3978 1 123.557 38.128 0.000
3979 1 124.267 36.898 0.000
3980 1 125.688 36.898 0.000
3981 3 125.688 36.898 1.100
3982 1 126.398 38.128 0.000
3983 1 127.818 38.128 0.000
3984 1 128.528 36.898 0.000
3985 1 129.948 36.898 0.000
3986 1 130.658 38.128 0.000
3987 1 132.079 38.128 0.000
3988 1 132.789 36.898 0.000
3989 1 134.209 36.898 0.000
3990 1 134.919 38.128 0.000
3991 1 136.339 38.128 0.000
3992 1 137.049 36.898 0.000
3993 1 138.470 36.898 0.000
3994 1 139.180 38.128 0.000
3995 1 140.600 38.128 0.000
3996 1 141.310 36.898 0.000
3997 1 142.730 36.898 0.000
3998 1 143.440 38.128 0.000
3999 1 144.860 38.128 0.000
4000 3 144.860 38.128 -1.100
4001 1 145.571 36.898 0.000
4002 1 146.991 36.898 0.000
4003 1 147.701 38.128 0.000
4004 1 149.121 38.128 0.000
4005 1 149.831 36.898 0.000
4006 1 151.251 36.898 0.000
4007 2 151.251 36.898 1.500
4008 3 152.351 36.898 1.633
4009 3 150.701 37.851 1.633
4010 3 150.701 35.945 1.633
4011 1 151.961 38.128 0.000
4012 1 153.382 38.128 0.000
4013 1 154.092 36.898 0.000
4014 1 155.512 36.898 0.000
4015 1 156.222 38.128 0.000
4016 1 157.642 38.128 0.000
4017 1 158.352 36.898 0.000
4018 1 159.773 36.898 0.000
4019 1 160.483 38.128 0.000
4020 1 161.903 38.128 0.000
4021 1 162.613 36.898 0.000
4022 1 164.033 36.898 0.000
4023 1 164.743 38.128 0.000
4024 1 166.163 38.128 0.000
4025 1 166.874 36.898 0.000
4026 1 168.294 36.898 0.000
4027 1 169.004 38.128 0.000
4028 1 170.424 38.128 0.000
4029 1 171.134 36.898 0.000
4030 1 172.554 36.898 0.000
4031 1 173.264 38.128 0.000
4032 1 174.685 38.128 0.000
4033 1 175.395 36.898 0.000
4034 1 176.815 36.898 0.000
4035 1 177.525 38.128 0.000
4036 1 178.945 38.128 0.000
4037 1 179.655 36.898 0.000
4038 1 181.076 36.898 0.000
4039 1 181.786 38.128 0.000
4040 1 183.206 38.128 0.000
4041 1 183.916 36.898 0.000
4042 1 185.336 36.898 0.000
4043 1 186.046 38.128 0.000
4044 1 187.466 38.128 0.000
4045 1 188.177 36.898 0.000
4046 1 189.597 36.898 0.000
4047 1 190.307 38.128 0.000
4048 1 191.727 38.128 0.000
4049 1 192.437 36.898 0.000
4050 1 193.857 36.898 0.000
4051 1 194.567 38.128 0.000
4052 1 195.988 38.128 0.000
4053 1 196.698 36.898 0.000
4054 1 198.118 36.898 0.000
4055 1 198.828 38.128 0.000
4056 1 200.248 38.128 0.000
4057 1 200.958 36.898 0.000
4058 1 202.379 36.898 0.000
4059 3 202.379 36.898 1.100
4060 1 203.089 38.128 0.000
4061 1 204.509 38.128 0.000
4062 1 205.219 36.898 0.000
4063 1 206.639 36.898 0.000
4064 1 207.349 38.128 0.000
4065 1 208.769 38.128 0.000
4066 1 209.480 36.898 0.000
4067 1 210.900 36.898 0.000
4068 1 211.610 38.128 0.000
4069 1 213.030 38.128 0.000
4070 1 213.740 36.898 0.000
4071 1 215.160 36.898 0.000
4072 1 215.870 38.128 0.000
4073 1 217.291 38.128 0.000
4074 1 218.001 36.898 0.000
4075 1 219.421 36.898 0.000
4076 1 220.131 38.128 0.000
4077 1 221.551 38.128 0.000
4078 1 222.261 36.898 0.000
4079 1 223.681 36.898 0.000
4080 1 224.392 38.128 0.000
4081 1 225.812 38.128 0.000
4082 1 226.522 36.898 0.000
4083 1 227.942 36.898 0.000
4084 1 228.652 38.128 0.000
4085 1 230.072 38.128 0.000
4086 1 230.783 36.898 0.000
4087 1 232.203 36.898 0.000
4088 1 232.913 38.128 0.000
4089 1 234.333 38.128 0.000
4090 1 235.043 36.898 0.000
4091 1 236.463 36.898 0.000
4092 1 237.173 38.128 0.000
4093 1 238.594 38.128 0.000
4094 1 239.304 36.898 0.000
4095 1 240.724 36.898 0.000
4096 1 241.434 38.128 0.000
4097 1 242.854 38.128 0.000
4098 1 243.564 36.898 0.000
4099 1 244.985 36.898 0.000
4100 1 245.695 38.128 0.000
4101 1 247.115 38.128 0.000
4102 1 247.825 36.898 0.000
4103 1 249.245 36.898 0.000
4104 1 249.955 38.128 0.000
4105 1 0.000 40.588 0.000
4106 1 0.710 39.358 0.000
4107 1 2.130 39.358 0.000
4108 1 2.840 40.588 0.000
4109 1 4.261 40.588 0.000
4110 1 4.971 39.358 0.000
4111 1 6.391 39.358 0.000
4112 1 7.101 40.588 0.000
4113 1 8.521 40.588 0.000
4114 1 9.231 39.358 0.000
4115 1 10.652 39.358 0.000
4116 1 11.362 40.588 0.000
4117 1 12.782 40.588 0.000
4118 1 13.492 39.358 0.000
4119 1 14.912 39.358 0.000
4120 1 15.622 40.588 0.000
4121 1 17.042 40.588 0.000
4122 1 17.753 39.358 0.000
4123 1 19.173 39.358 0.000
4124 1 19.883 40.588 0.000
4125 1 21.303 40.588 0.000
4126 1 22.013 39.358 0.000
4127 1 23.433 39.358 0.000
4128 1 24.143 40.588 0.000
4129 1 25.564 40.588 0.000
4130 1 26.274 39.358 0.000
4131 1 27.694 39.358 0.000
4132 1 28.404 40.588 0.000
4133 1 29.824 40.588 0.000
4134 1 30.534 39.358 0.000
4135 1 31.954 39.358 0.000
4136 1 32.665 40.588 0.000
4137 1 34.085 40.588 0.000
4138 1 34.795 39.358 0.000
4139 1 36.215 39.358 0.000
4140 1 36.925 40.588 0.000
4141 1 38.345 40.588 0.000
4142 1 39.055 39.358 0.000
4143 1 40.476 39.358 0.000
4144 1 41.186 40.588 0.000
4145 1 42.606 40.588 0.000
4146 1 43.316 39.358 0.000
4147 1 44.736 39.358 0.000
4148 1 45.446 40.588 0.000
4149 1 46.867 40.588 0.000
4150 1 47.577 39.358 0.000
4151 1 48.997 39.358 0.000
4152 1 49.707 40.588 0.000
4153 1 51.127 40.588 0.000
4154 1 51.837 39.358 0.000
4155 1 53.258 39.358 0.000
4156 1 53.968 40.588 0.000
4157 1 55.388 40.588 0.000
4158 1 56.098 39.358 0.000
4159 3 56.098 39.358 1.100
4160 1 57.518 39.358 0.000
4161 1 58.228 40.588 0.000
4162 2 58.228 40.588 -1.500
4163 3 59.328 40.588 -1.633
4164 3 57.678 41.541 -1.633
4165 3 57.678 39.635 -1.633
4166 1 59.648 40.588 0.000
4167 1 60.358 39.358 0.000
4168 1 61.779 39.358 0.000
4169 1 62.489 40.588 0.000
4170 1 63.909 40.588 0.000
4171 1 64.619 39.358 0.000
4172 1 66.039 39.358 0.000
4173 1 66.749 40.588 0.000
4174 1 68.170 40.588 0.000
4175 1 68.880 39.358 0.000
4176 1 70.300 39.358 0.000
4177 1 71.010 40.588 0.000
4178 1 72.430 40.588 0.000
4179 1 73.140 39.358 0.000
4180 1 74.561 39.358 0.000
4181 1 75.271 40.588 0.000
4182 1 76.691 40.588 0.000
4183 1 77.401 39.358 0.000
4184 1 78.821 39.358 0.000
4185 1 79.531 40.588 0.000
4186 1 80.951 40.588 0.000
4187 1 81.662 39.358 0.000
4188 1 83.082 39.358 0.000
4189 1 83.792 40.588 0.000
4190 1 85.212 40.588 0.000
4191 1 85.922 39.358 0.000
4192 1 87.342 39.358 0.000
4193 1 88.052 40.588 0.000
4194 1 89.473 40.588 0.000
4195 1 90.183 39.358 0.000
4196 1 91.603 39.358 0.000
4197 1 92.313 40.588 0.000
4198 1 93.733 40.588 0.000
4199 1 94.443 39.358 0.000
4200 1 95.864 39.358 0.000
4201 1 96.574 40.588 0.000
4202 1 97.994 40.588 0.000
4203 1 98.704 39.358 0.000
4204 1 100.124 39.358 0.000
4205 1 100.834 40.588 0.000
4206 1 102.254 40.588 0.000
4207 1 102.965 39.358 0.000
4208 1 104.385 39.358 0.000
4209 1 105.095 40.588 0.000
4210 1 106.515 40.588 0.000
4211 1 107.225 39.358 0.000
4212 1 108.645 39.358 0.000
4213 1 109.355 40.588 0.000
4214 1 110.776 40.588 0.000
4215 1 111.486 39.358 0.000
4216 1 112.906 39.358 0.000
4217 1 113.616 40.588 0.000
4218 1 115.036 40.588 0.000
4219 1 115.746 39.358 0.000
4220 1 117.167 39.358 0.000
4221 1 117.877 40.588 0.000
4222 1 119.297 40.588 0.000
4223 1 120.007 39.358 0.000
4224 1 121.427 39.358 0.000
4225 1 122.137 40.588 0.000
4226 1 123.557 40.588 0.000
4227 1 124.267 39.358 0.000
4228 1 125.688 39.358 0.000
4229 1 126.398 40.588 0.000
4230 1 127.818 40.588 0.000
4231 1 128.528 39.358 0.000
4232 1 129.948 39.358 0.000
4233 1 130.658 40.588 0.000
4234 1 132.079 40.588 0.000
4235 1 132.789 39.358 0.000
4236 1 134.209 39.358 0.000
4237 1 134.919 40.588 0.000
4238 1 136.339 40.588 0.000
4239 1 137.049 39.358 0.000
4240 1 138.470 39.358 0.000
4241 1 139.180 40.588 0.000
4242 1 140.600 40.588 0.000
4243 1 141.310 39.358 0.000
4244 1 142.730 39.358 0.000
4245 1 143.440 40.588 0.000
4246 1 144.860 40.588 0.000
4247 1 145.571 39.358 0.000
4248 1 146.991 39.358 0.000
4249 1 147.701 40.588 0.000
4250 3 147.701 40.588 -1.100
4251 1 149.121 40.588 0.000
4252 1 149.831 39.358 0.000
4253 1 151.251 39.358 0.000
4254 1 151.961 40.588 0.000
4255 1 153.382 40.588 0.000
4256 1 154.092 39.358 0.000
4257 1 155.512 39.358 0.000
4258 1 156.222 40.588 0.000
4259 1 157.642 40.588 0.000
4260 1 158.352 39.358 0.000
4261 1 159.773 39.358 0.000
4262 1 160.483 40.588 0.000
4263 1 161.903 40.588 0.000
4264 1 162.613 39.358 0.000
4265 1 164.033 39.358 0.000
4266 1 164.743 40.588 0.000
4267 1 166.163 40.588 0.000
4268 1 166.874 39.358 0.000
4269 1 168.294 39.358 0.000
4270 1 169.004 40.588 0.000
4271 1 170.424 40.588 0.000
4272 1 171.134 39.358 0.000
4273 1 172.554 39.358 0.000
4274 1 173.264 40.588 0.000
4275 1 174.685 40.588 0.000
4276 1 175.395 39.358 0.000
4277 1 176.815 39.358 0.000
4278 1 177.525 40.588 0.000
4279 1 178.945 40.588 0.000
4280 1 179.655 39.358 0.000
4281 1 181.076 39.358 0.000
4282 1 181.786 40.588 0.000
4283 1 183.206 40.588 0.000
4284 1 183.916 39.358 0.000
4285 1 185.336 39.358 0.000
4286 1 186.046 40.588 0.000
4287 1 187.466 40.588 0.000
4288 1 188.177 39.358 0.000
4289 1 189.597 39.358 0.000
4290 1 190.307 40.588 0.000
4291 2 190.307 40.588 -1.500
4292 3 191.407 40.588 -1.633
4293 3 189.757 41.541 -1.633
4294 3 189.757 39.635 -1.633
4295 1 191.727 40.588 0.000
4296 1 192.437 39.358 0.000
4297 1 193.857 39.358 0.000
4298 1 194.567 40.588 0.000
4299 1 195.988 40.588 0.000
4300 1 196.698 39.358 0.000
4301 1 198.118 39.358 0.000
4302 1 198.828 40.588 0.000
4303 1 200.248 40.588 0.000
4304 1 200.958 39.358 0.000
4305 1 202.379 39.358 0.000
4306 1 203.089 40.588 0.000
4307 1 204.509 40.588 0.000
4308 1 205.219 39.358 0.000
4309 1 206.639 39.358 0.000
4310 1 207.349 40.588 0.000
4311 1 208.769 40.588 0.000
4312 1 209.480 39.358 0.000
4313 1 210.900 39.358 0.000
4314 1 211.610 40.588 0.000
4315 1 213.030 40.588 0.000
4316 1 213.740 39.358 0.000
4317 1 215.160 39.358 0.000
4318 1 215.870 40.588 0.000
4319 1 217.291 40.588 0.000
4320 1 218.001 39.358 0.000
4321 1 219.421 39.358 0.000
4322 1 220.131 40.588 0.000
4323 1 221.551 40.588 0.000
4324 1 222.261 39.358 0.000
4325 1 223.681 39.358 0.000
4326 1 224.392 40.588 0.000
4327 1 225.812 40.588 0.000
4328 1 226.522 39.358 0.000
4329 1 227.942 39.358 0.000
4330 1 228.652 40.588 0.000
4331 1 230.072 40.588 0.000
4332 1 230.783 39.358 0.000
4333 3 230.783 39.358 1.100
4334 1 232.203 39.358 0.000
4335 1 232.913 40.588 0.000
4336 1 234.333 40.588 0.000
4337 3 234.333 40.588 -1.100
4338 1 235.043 39.358 0.000
4339 1 236.463 39.358 0.000
4340 1 237.173 40.588 0.000
4341 3 237.173 40.588 -1.100
4342 1 238.594 40.588 0.000
4343 1 239.304 39.358 0.000
4344 1 240.724 39.358 0.000
4345 1 241.434 40.588 0.000
4346 1 242.854 40.588 0.000
4347 1 243.564 39.358 0.000
4348 1 244.985 39.358 0.000
4349 1 245.695 40.588 0.000
4350 1 247.115 40.588 0.000
4351 1 247.825 39.358 0.000
4352 1 249.245 39.358 0.000
4353 2 249.245 39.358 -1.500
4354 3 250.345 39.358 -1.633
4355 3 248.145 39.358 -1.633
4356 2 249.245 39.358 -3.040
4357 3 250.345 39.358 -3.173
4358 3 248.695 40.311 -3.173
4359 3 248.695 38.405 -3.173
4360 1 249.955 40.588 0.000
4361 1 0.000 43.048 0.000
4362 1 0.710 41.818 0.000
4363 1 2.130 41.818 0.000
4364 1 2.840 43.048 0.000
4365 1 4.261 43.048 0.000
4366 3 4.261 43.048 1.100
4367 1 4.971 41.818 0.000
4368 1 6.391 41.818 0.000
4369 1 7.101 43.048 0.000
4370 1 8.521 43.048 0.000
4371 1 9.231 41.818 0.000
4372 1 10.652 41.818 0.000
4373 1 11.362 43.048 0.000
4374 1 12.782 43.048 0.000
4375 1 13.492 41.818 0.000
4376 1 14.912 41.818 0.000
4377 1 15.622 43.048 0.000
4378 1 17.042 43.048 0.000
4379 1 17.753 41.818 0.000
4380 1 19.173 41.818 0.000
4381 1 19.883 43.048 0.000
4382 1 21.303 43.048 0.000
4383 1 22.013 41.818 0.000
4384 1 23.433 41.818 0.000
4385 1 24.143 43.048 0.000
4386 1 25.564 43.048 0.000
4387 1 26.274 41.818 0.000
4388 1 27.694 41.818 0.000
4389 1 28.404 43.048 0.000
4390 1 29.824 43.048 0.000
4391 1 30.534 41.818 0.000
4392 1 31.954 41.818 0.000
4393 1 32.665 43.048 0.000
4394 3 32.665 43.048 -1.100
4395 1 34.085 43.048 0.000
4396 1 34.795 41.818 0.000
4397 1 36.215 41.818 0.000
4398 1 36.925 43.048 0.000
4399 1 38.345 43.048 0.000
4400 1 39.055 41.818 0.000
4401 1 40.476 41.818 0.000
4402 1 41.186 43.048 0.000
4403 1 42.606 43.048 0.000
4404 1 43.316 41.818 0.000
4405 2 43.316 41.818 1.500
4406 3 44.416 41.818 1.633
4407 3 42.216 41.818 1.633
4408 2 43.316 41.818 3.040
4409 3 44.416 41.818 3.173
4410 3 42.766 42.771 3.173
4411 3 42.766 40.865 3.173
4412 1 44.736 41.818 0.000
4413 1 45.446 43.048 0.000
4414 1 46.867 43.048 0.000
4415 1 47.577 41.818 0.000
4416 1 48.997 41.818 0.000
4417 1 49.707 43.048 0.000
4418 1 51.127 43.048 0.000
4419 1 51.837 41.818 0.000
4420 1 53.258 41.818 0.000
4421 1 53.968 43.048 0.000
4422 1 55.388 43.048 0.000
4423 1 56.098 41.818 0.000
4424 1 57.518 41.818 0.000
4425 1 58.228 43.048 0.000
4426 1 59.648 43.048 0.000
4427 1 60.358 41.818 0.000
4428 1 61.779 41.818 0.000
4429 1 62.489 43.048 0.000
4430 1 63.909 43.048 0.000
4431 1 64.619 41.818 0.000
4432 1 66.039 41.818 0.000
4433 1 66.749 43.048 0.000
4434 1 68.170 43.048 0.000
4435 1 68.880 41.818 0.000
4436 1 70.300 41.818 0.000
4437 1 71.010 43.048 0.000
4438 1 72.430 43.048 0.000
4439 1 73.140 41.818 0.000
4440 1 74.561 41.818 0.000
4441 1 75.271 43.048 0.000
4442 1 76.691 43.048 0.000
4443 1 77.401 41.818 0.000
4444 1 78.821 41.818 0.000
4445 1 79.531 43.048 0.000
4446 1 80.951 43.048 0.000
4447 1 81.662 41.818 0.000
4448 1 83.082 41.818 0.000
4449 1 83.792 43.048 0.000
4450 1 85.212 43.048 0.000
4451 1 85.922 41.818 0.000
4452 1 87.342 41.818 0.000
4453 1 88.052 43.048 0.000
4454 1 89.473 43.048 0.000
4455 1 90.183 41.818 0.000
4456 1 91.603 41.818 0.000
4457 2 91.603 41.818 -1.500
4458 3 92.703 41.818 -1.633
4459 3 91.053 42.771 -1.633
4460 3 91.053 40.865 -1.633
4461 1 92.313 43.048 0.000
4462 1 93.733 43.048 0.000
4463 1 94.443 41.818 0.000
4464 1 95.864 41.818 0.000
4465 1 96.574 43.048 0.000
4466 1 97.994 43.048 0.000
4467 1 98.704 41.818 0.000
4468 1 100.124 41.818 0.000
4469 1 100.834 43.048 0.000
4470 1 102.254 43.048 0.000
4471 1 102.965 41.818 0.000
4472 1 104.385 41.818 0.000
4473 1 105.095 43.048 0.000
4474 1 106.515 43.048 0.000
4475 1 107.225 41.818 0.000
4476 1 108.645 41.818 0.000
4477 1 109.355 43.048 0.000
4478 1 110.776 43.048 0.000
4479 1 111.486 41.818 0.000
4480 3 111.486 41.818 1.100
4481 1 112.906 41.818 0.000
4482 1 113.616 43.048 0.000
4483 1 115.036 43.048 0.000
4484 1 115.746 41.818 0.000
4485 1 117.167 41.818 0.000
4486 1 117.877 43.048 0.000
4487 1 119.297 43.048 0.000
4488 1 120.007 41.818 0.000
4489 1 121.427 41.818 0.000
4490 1 122.137 43.048 0.000
4491 1 123.557 43.048 0.000
4492 1 124.267 41.818 0.000
4493 1 125.688 41.818 0.000
4494 1 126.398 43.048 0.000
4495 1 127.818 43.048 0.000
4496 1 128.528 41.818 0.000
4497 1 129.948 41.818 0.000
4498 1 130.658 43.048 0.000
4499 1 132.079 43.048 0.000
4500 1 132.789 41.818 0.000
4501 1 134.209 41.818 0.000
4502 1 134.919 43.048 0.000
4503 1 136.339 43.048 0.000
4504 3 136.339 43.048 -1.100
4505 1 137.049 41.818 0.000
4506 1 138.470 41.818 0.000
4507 1 139.180 43.048 0.000
4508 3 139.180 43.048 -1.100
4509 1 140.600 43.048 0.000
4510 1 141.310 41.818 0.000
4511 1 142.730 41.818 0.000
4512 1 143.440 43.048 0.000
4513 1 144.860 43.048 0.000
4514 1 145.571 41.818 0.000
4515 1 146.991 41.818 0.000
4516 1 147.701 43.048 0.000
4517 1 149.121 43.048 0.000
4518 1 149.831 41.818 0.000
4519 1 151.251 41.818 0.000
4520 1 151.961 43.048 0.000
4521 1 153.382 43.048 0.000
4522 1 154.092 41.818 0.000
4523 1 155.512 41.818 0.000
4524 3 155.512 41.818 -1.100
4525 1 156.222 43.048 0.000
4526 1 157.642 43.048 0.000
4527 1 158.352 41.818 0.000
4528 1 159.773 41.818 0.000
4529 1 160.483 43.048 0.000
4530 1 161.903 43.048 0.000
4531 1 162.613 41.818 0.000
4532 1 164.033 41.818 0.000
4533 1 164.743 43.048 0.000
4534 1 166.163 43.048 0.000
4535 1 166.874 41.818 0.000
4536 3 166.874 41.818 -1.100
4537 1 168.294 41.818 0.000
4538 1 169.004 43.048 0.000
4539 1 170.424 43.048 0.000
4540 1 171.134 41.818 0.000
4541 1 172.554 41.818 0.000
4542 1 173.264 43.048 0.000
4543 1 174.685 43.048 0.000
4544 1 175.395 41.818 0.000
4545 1 176.815 41.818 0.000
4546 1 177.525 43.048 0.000
4547 1 178.945 43.048 0.000
4548 1 179.655 41.818 0.000
4549 1 181.076 41.818 0.000
4550 1 181.786 43.048 0.000
4551 1 183.206 43.048 0.000
4552 3 183.206 43.048 1.100
4553 1 183.916 41.818 0.000
4554 1 185.336 41.818 0.000
4555 1 186.046 43.048 0.000
4556 1 187.466 43.048 0.000
4557 1 188.177 41.818 0.000
4558 1 189.597 41.818 0.000
4559 1 190.307 43.048 0.000
4560 1 191.727 43.048 0.000
4561 1 192.437 41.818 0.000
4562 1 193.857 41.818 0.000
4563 1 194.567 43.048 0.000
4564 1 195.988 43.048 0.000
4565 1 196.698 41.818 0.000
4566 1 198.118 41.818 0.000
4567 1 198.828 43.048 0.000
4568 1 200.248 43.048 0.000
4569 1 200.958 41.818 0.000
4570 1 202.379 41.818 0.000
4571 1 203.089 43.048 0.000
4572 1 204.509 43.048 0.000
4573 1 205.219 41.818 0.000
4574 1 206.639 41.818 0.000
4575 1 207.349 43.048 0.000
4576 1 208.769 43.048 0.000
4577 1 209.480 41.818 0.000
4578 1 210.900 41.818 0.000
4579 1 211.610 43.048 0.000
4580 1 213.030 43.048 0.000
4581 1 213.740 41.818 0.000
4582 1 215.160 41.818 0.000
4583 1 215.870 43.048 0.000
4584 1 217.291 43.048 0.000
4585 1 218.001 41.818 0.000
4586 1 219.421 41.818 0.000
4587 1 220.131 43.048 0.000
4588 1 221.551 43.048 0.000
4589 1 222.261 41.818 0.000
4590 1 223.681 41.818 0.000
4591 1 224.392 43.048 0.000
4592 1 225.812 43.048 0.000
4593 1 226.522 41.818 0.000
4594 1 227.942 41.818 0.000
4595 1 228.652 43.048 0.000
4596 1 230.072 43.048 0.000
4597 1 230.783 41.818 0.000
4598 1 232.203 41.818 0.000
4599 1 232.913 43.048 0.000
4600 1 234.333 43.048 0.000
4601 1 235.043 41.818 0.000
4602 1 236.463 41.818 0.000
4603 1 237.173 43.048 0.000
4604 1 238.594 43.048 0.000
4605 1 239.304 41.818 0.000
4606 1 240.724 41.818 0.000
4607 1 241.434 43.048 0.000
4608 1 242.854 43.048 0.000
4609 1 243.564 41.818 0.000
4610 1 244.985 41.818 0.000
4611 1 245.695 43.048 0.000
4612 1 247.115 43.048 0.000
4613 1 247.825 41.818 0.000
4614 1 249.245 41.818 0.000
4615 1 249.955 43.048 0.000
4616 1 0.000 45.507 0.000
4617 1 0.710 44.277 0.000
4618 1 2.130 44.277 0.000
4619 3 2.130 44.277 -1.100
4620 1 2.840 45.507 0.000
4621 1 4.261 45.507 0.000
4622 1 4.971 44.277 0.000
4623 1 6.391 44.277 0.000
4624 1 7.101 45.507 0.000
4625 1 8.521 45.507 0.000
4626 1 9.231 44.277 0.000
4627 1 10.652 44.277 0.000
4628 1 11.362 45.507 0.000
4629 1 12.782 45.507 0.000
4630 1 13.492 44.277 0.000
4631 1 14.912 44.277 0.000
4632 1 15.622 45.507 0.000
4633 1 17.042 45.507 0.000
4634 1 17.753 44.277 0.000
4635 1 19.173 44.277 0.000
4636 3 19.173 44.277 1.100
4637 1 19.883 45.507 0.000
4638 1 21.303 45.507 0.000
4639 1 22.013 44.277 0.000
4640 1 23.433 44.277 0.000
4641 1 24.143 45.507 0.000
4642 1 25.564 45.507 0.000
4643 3 25.564 45.507 1.100
4644 1 26.274 44.277 0.000
4645 1 27.694 44.277 0.000
4646 1 28.404 45.507 0.000
4647 1 29.824 45.507 0.000
4648 1 30.534 44.277 0.000
4649 1 31.954 44.277 0.000
4650 1 32.665 45.507 0.000
4651 1 34.085 45.507 0.000
4652 1 34.795 44.277 0.000
4653 1 36.215 44.277 0.000
4654 1 36.925 45.507 0.000
4655 1 38.345 45.507 0.000
4656 1 39.055 44.277 0.000
4657 1 40.476 44.277 0.000
4658 1 41.186 45.507 0.000
4659 1 42.606 45.507 0.000
4660 1 43.316 44.277 0.000
4661 1 44.736 44.277 0.000
4662 1 45.446 45.507 0.000
4663 1 46.867 45.507 0.000
4664 1 47.577 44.277 0.000
4665 1 48.997 44.277 0.000
4666 1 49.707 45.507 0.000
4667 1 51.127 45.507 0.000
4668 1 51.837 44.277 0.000
4669 1 53.258 44.277 0.000
4670 1 53.968 45.507 0.000
4671 1 55.388 45.507 0.000
4672 1 56.098 44.277 0.000
4673 1 57.518 44.277 0.000
4674 1 58.228 45.507 0.000
4675 1 59.648 45.507 0.000
4676 1 60.358 44.277 0.000
4677 1 61.779 44.277 0.000
4678 1 62.489 45.507 0.000
4679 1 63.909 45.507 0.000
4680 1 64.619 44.277 0.000
4681 1 66.039 44.277 0.000
4682 1 66.749 45.507 0.000
4683 1 68.170 45.507 0.000
4684 1 68.880 44.277 0.000
4685 1 70.300 44.277 0.000
4686 1 71.010 45.507 0.000
4687 1 72.430 45.507 0.000
4688 1 73.140 44.277 0.000
4689 1 74.561 44.277 0.000
4690 1 75.271 45.507 0.000
4691 1 76.691 45.507 0.000
4692 1 77.401 44.277 0.000
4693 1 78.821 44.277 0.000
4694 1 79.531 45.507 0.000
4695 1 80.951 45.507 0.000
4696 1 81.662 44.277 0.000
4697 1 83.082 44.277 0.000
4698 1 83.792 45.507 0.000
4699 1 85.212 45.507 0.000
4700 1 85.922 44.277 0.000
4701 1 87.342 44.277 0.000
4702 1 88.052 45.507 0.000
4703 1 89.473 45.507 0.000
4704 1 90.183 44.277 0.000
4705 1 91.603 44.277 0.000
4706 1 92.313 45.507 0.000
4707 1 93.733 45.507 0.000
4708 1 94.443 44.277 0.000
4709 1 95.864 44.277 0.000
4710 1 96.574 45.507 0.000
4711 1 97.994 45.507 0.000
4712 1 98.704 44.277 0.000
4713 1 100.124 44.277 0.000
4714 1 100.834 45.507 0.000
4715 1 102.254 45.507 0.000
4716 1 102.965 44.277 0.000
4717 1 104.385 44.277 0.000
4718 1 105.095 45.507 0.000
4719 1 106.515 45.507 0.000
4720 1 107.225 44.277 0.000
4721 1 108.645 44.277 0.000
4722 1 109.355 45.507 0.000
4723 1 110.776 45.507 0.000
4724 1 111.486 44.277 0.000
4725 1 112.906 44.277 0.000
4726 1 113.616 45.507 0.000
4727 1 115.036 45.507 0.000
4728 1 115.746 44.277 0.000
4729 1 117.167 44.277 0.000
4730 1 117.877 45.507 0.000
4731 1 119.297 45.507 0.000
4732 1 120.007 44.277 0.000
4733 1 121.427 44.277 0.000
4734 1 122.137 45.507 0.000
4735 1 123.557 45.507 0.000
4736 1 124.267 44.277 0.000
4737 1 125.688 44.277 0.000
4738 1 126.398 45.507 0.000
4739 3 126.398 45.507 -1.100
4740 1 127.818 45.507 0.000
4741 1 128.528 44.277 0.000
4742 1 129.948 44.277 0.000
4743 1 130.658 45.507 0.000
4744 3 130.658 45.507 1.100
4745 1 132.079 45.507 0.000
4746 1 132.789 44.277 0.000
4747 1 134.209 44.277 0.000
4748 1 134.919 45.507 0.000
4749 1 136.339 45.507 0.000
4750 1 137.049 44.277 0.000
4751 1 138.470 44.277 0.000
4752 1 139.180 45.507 0.000
4753 1 140.600 45.507 0.000
4754 1 141.310 44.277 0.000
4755 1 142.730 44.277 0.000
4756 1 143.440 45.507 0.000
4757 3 143.440 45.507 -1.100
4758 1 144.860 45.507 0.000
4759 1 145.571 44.277 0.000
4760 1 146.991 44.277 0.000
4761 1 147.701 45.507 0.000
4762 1 149.121 45.507 0.000
4763 1 149.831 44.277 0.000
4764 1 151.251 44.277 0.000
4765 1 151.961 45.507 0.000
4766 1 153.382 45.507 0.000
4767 1 154.092 44.277 0.000
4768 1 155.512 44.277 0.000
4769 1 156.222 45.507 0.000
4770 1 157.642 45.507 0.000
4771 1 158.352 44.277 0.000
4772 2 158.352 44.277 1.500
4773 3 159.452 44.277 1.633
4774 3 157.252 44.277 1.633
4775 2 158.352 44.277 3.040
4776 3 159.452 44.277 3.173
4777 3 157.802 45.230 3.173
4778 3 157.802 43.324 3.173
4779 1 159.773 44.277 0.000
4780 1 160.483 45.507 0.000
4781 1 161.903 45.507 0.000
4782 1 162.613 44.277 0.000
4783 1 164.033 44.277 0.000
4784 1 164.743 45.507 0.000
4785 1 166.163 45.507 0.000
4786 3 166.163 45.507 1.100
4787 1 166.874 44.277 0.000
4788 1 168.294 44.277 0.000
4789 1 169.004 45.507 0.000
4790 1 170.424 45.507 0.000
4791 1 171.134 44.277 0.000
4792 1 172.554 44.277 0.000
4793 1 173.264 45.507 0.000
4794 1 174.685 45.507 0.000
4795 1 175.395 44.277 0.000
4796 1 176.815 44.277 0.000
4797 1 177.525 45.507 0.000
4798 1 178.945 45.507 0.000
4799 1 179.655 44.277 0.000
4800 1 181.076 44.277 0.000
4801 1 181.786 45.507 0.000
4802 1 183.206 45.507 0.000
4803 1 183.916 44.277 0.000
4804 1 185.336 44.277 0.000
4805 1 186.046 45.507 0.000
4806 1 187.466 45.507 0.000
4807 1 188.177 44.277 0.000
4808 1 189.597 44.277 0.000
4809 1 190.307 45.507 0.000
4810 1 191.727 45.507 0.000
4811 1 192.437 44.277 0.000
4812 2 192.437 44.277 1.500
4813 3 193.537 44.277 1.633
4814 3 191.887 45.230 1.633
4815 3 191.887 43.324 1.633
4816 1 193.857 44.277 0.000
4817 1 194.567 45.507 0.000
4818 1 195.988 45.507 0.000
4819 1 196.698 44.277 0.000
4820 1 198.118 44.277 0.000
4821 1 198.828 45.507 0.000
4822 1 200.248 45.507 0.000
4823 1 200.958 44.277 0.000
4824 1 202.379 44.277 0.000
4825 1 203.089 45.507 0.000
4826 1 204.509 45.507 0.000
4827 1 205.219 44.277 0.000
4828 1 206.639 44.277 0.000
4829 1 207.349 45.507 0.000
4830 2 207.349 45.507 1.500
4831 3 208.449 45.507 1.633
4832 3 206.249 45.507 1.633
4833 2 207.349 45.507 3.040
4834 3 208.449 45.507 3.173
4835 3 206.799 46.460 3.173
4836 3 206.799 44.554 3.173
4837 1 208.769 45.507 0.000
4838 1 209.480 44.277 0.000
4839 2 209.480 44.277 -1.500
4840 3 210.580 44.277 -1.633
4841 3 208.380 44.277 -1.633
4842 2 209.480 44.277 -3.040
4843 3 210.580 44.277 -3.173
4844 3 208.930 45.230 -3.173
4845 3 208.930 43.324 -3.173
4846 1 210.900 44.277 0.000
4847 1 211.610 45.507 0.000
4848 1 213.030 45.507 0.000
4849 1 213.740 44.277 0.000
4850 1 215.160 44.277 0.000
4851 1 215.870 45.507 0.000
4852 1 217.291 45.507 0.000
4853 1 218.001 44.277 0.000
4854 1 219.421 44.277 0.000
4855 1 220.131 45.507 0.000
4856 1 221.551 45.507 0.000
4857 1 222.261 44.277 0.000
4858 1 223.681 44.277 0.000
4859 1 224.392 45.507 0.000
4860 1 225.812 45.507 0.000
4861 1 226.522 44.277 0.000
4862 1 227.942 44.277 0.000
4863 1 228.652 45.507 0.000
4864 3 228.652 45.507 -1.100
4865 1 230.072 45.507 0.000
4866 1 230.783 44.277 0.000
4867 1 232.203 44.277 0.000
4868 1 232.913 45.507 0.000
4869 1 234.333 45.507 0.000
4870 1 235.043 44.277 0.000
4871 1 236.463 44.277 0.000
4872 1 237.173 45.507 0.000
4873 1 238.594 45.507 0.000
4874 2 238.594 45.507 1.500
4875 3 239.694 45.507 1.633
4876 3 237.494 45.507 1.633
4877 2 238.594 45.507 3.040
4878 3 239.694 45.507 3.173
4879 3 238.044 46.460 3.173
4880 3 238.044 44.554 3.173
4881 1 239.304 44.277 0.000
4882 1 240.724 44.277 0.000
4883 1 241.434 45.507 0.000
4884 1 242.854 45.507 0.000
4885 1 243.564 44.277 0.000
4886 1 244.985 44.277 0.000
4887 1 245.695 45.507 0.000
4888 1 247.115 45.507 0.000
4889 1 247.825 44.277 0.000
4890 1 249.245 44.277 0.000
4891 1 249.955 45.507 0.000
4892 1 0.000 47.967 0.000
4893 1 0.710 46.737 0.000
4894 1 2.130 46.737 0.000
4895 1 2.840 47.967 0.000
4896 1 4.261 47.967 0.000
4897 1 4.971 46.737 0.000
4898 1 6.391 46.737 0.000
4899 1 7.101 47.967 0.000
4900 1 8.521 47.967 0.000
4901 1 9.231 46.737 0.000
4902 1 10.652 46.737 0.000
4903 1 11.362 47.967 0.000
4904 1 12.782 47.967 0.000
4905 1 13.492 46.737 0.000
4906 1 14.912 46.737 0.000
4907 1 15.622 47.967 0.000
4908 1 17.042 47.967 0.000
4909 1 17.753 46.737 0.000
4910 1 19.173 46.737 0.000
4911 1 19.883 47.967 0.000
4912 1 21.303 47.967 0.000
4913 1 22.013 46.737 0.000
4914 1 23.433 46.737 0.000
4915 1 24.143 47.967 0.000
4916 3 24.143 47.967 -1.100
4917 1 25.564 47.967 0.000
4918 1 26.274 46.737 0.000
4919 1 27.694 46.737 0.000
4920 1 28.404 47.967 0.000
4921 1 29.824 47.967 0.000
4922 1 30.534 46.737 0.000
4923 3 30.534 46.737 -1.100
4924 1 31.954 46.737 0.000
4925 1 32.665 47.967 0.000
4926 1 34.085 47.967 0.000
4927 1 34.795 46.737 0.000
4928 1 36.215 46.737 0.000
4929 1 36.925 47.967 0.000
4930 1 38.345 47.967 0.000
4931 1 39.055 46.737 0.000
4932 3 39.055 46.737 -1.100
4933 1 40.476 46.737 0.000
4934 1 41.186 47.967 0.000
4935 1 42.606 47.967 0.000
4936 1 43.316 46.737 0.000
4937 1 44.736 46.737 0.000
4938 1 45.446 47.967 0.000
4939 1 46.867 47.967 0.000
4940 1 47.577 46.737 0.000
4941 1 48.997 46.737 0.000
4942 1 49.707 47.967 0.000
4943 1 51.127 47.967 0.000
4944 1 51.837 46.737 0.000
4945 1 53.258 46.737 0.000
4946 1 53.968 47.967 0.000
4947 1 55.388 47.967 0.000
4948 1 56.098 46.737 0.000
4949 3 56.098 46.737 -1.100
4950 1 57.518 46.737 0.000
4951 1 58.228 47.967 0.000
4952 1 59.648 47.967 0.000
4953 1 60.358 46.737 0.000
4954 1 61.779 46.737 0.000
4955 1 62.489 47.967 0.000
4956 1 63.909 47.967 0.000
4957 1 64.619 46.737 0.000
4958 1 66.039 46.737 0.000
4959 1 66.749 47.967 0.000
4960 1 68.170 47.967 0.000
4961 1 68.880 46.737 0.000
4962 3 68.880 46.737 -1.100
4963 1 70.300 46.737 0.000
4964 1 71.010 47.967 0.000
4965 1 72.430 47.967 0.000
4966 1 73.140 46.737 0.000
4967 1 74.561 46.737 0.000
4968 1 75.271 47.967 0.000
4969 1 76.691 47.967 0.000
4970 1 77.401 46.737 0.000
4971 1 78.821 46.737 0.000
4972 1 79.531 47.967 0.000
4973 1 80.951 47.967 0.000
4974 1 81.662 46.737 0.000
4975 1 83.082 46.737 0.000
4976 1 83.792 47.967 0.000
4977 3 83.792 47.967 1.100
4978 1 85.212 47.967 0.000
4979 1 85.922 46.737 0.000
4980 3 85.922 46.737 1.100
4981 1 87.342 46.737 0.000
4982 1 88.052 47.967 0.000
4983 1 89.473 47.967 0.000
4984 1 90.183 46.737 0.000
4985 1 91.603 46.737 0.000
4986 1 92.313 47.967 0.000
4987 1 93.733 47.967 0.000
4988 1 94.443 46.737 0.000
4989 1 95.864 46.737 0.000
4990 1 96.574 47.967 0.000
4991 1 97.994 47.967 0.000
4992 1 98.704 46.737 0.000
4993 1 100.124 46.737 0.000
4994 1 100.834 47.967 0.000
4995 1 102.254 47.967 0.000
4996 1 102.965 46.737 0.000
4997 1 104.385 46.737 0.000
4998 1 105.095 47.967 0.000
4999 1 106.515 47.967 0.000
5000 1 107.225 46.737 0.000
5001 1 108.645 46.737 0.000
5002 1 109.355 47.967 0.000
5003 1 110.776 47.967 0.000
5004 1 111.486 46.737 0.000
5005 1 112.906 46.737 0.000
5006 1 113.616 47.967 0.000
5007 1 115.036 47.967 0.000
5008 1 115.746 46.737 0.000
5009 1 117.167 46.737 0.000
5010 1 117.877 47.967 0.000
5011 1 119.297 47.967 0.000
5012 1 120.007 46.737 0.000
5013 1 121.427 46.737 0.000
5014 1 122.137 47.967 0.000
5015 1 123.557 47.967 0.000
5016 3 123.557 47.967 -1.100
5017 1 124.267 46.737 0.000
5018 1 125.688 46.737 0.000
5019 1 126.398 47.967 0.000
5020 1 127.818 47.967 0.000
5021 1 128.528 46.737 0.000
5022 1 129.948 46.737 0.000
5023 1 130.658 47.967 0.000
5024 1 132.079 47.967 0.000
5025 1 132.789 46.737 0.000
5026 1 134.209 46.737 0.000
5027 1 134.919 47.967 0.000
5028 1 136.339 47.967 0.000
5029 1 137.049 46.737 0.000
5030 1 138.470 46.737 0.000
5031 1 139.180 47.967 0.000
5032 1 140.600 47.967 0.000
5033 1 141.310 46.737 0.000
5034 1 142.730 46.737 0.000
5035 1 143.440 47.967 0.000
5036 1 144.860 47.967 0.000
5037 1 145.571 46.737 0.000
5038 1 146.991 46.737 0.000
5039 1 147.701 47.967 0.000
5040 1 149.121 47.967 0.000
5041 1 149.831 46.737 0.000
5042 1 151.251 46.737 0.000
5043 1 151.961 47.967 0.000
5044 1 153.382 47.967 0.000
5045 1 154.092 46.737 0.000
5046 1 155.512 46.737 0.000
5047 1 156.222 47.967 0.000
5048 1 157.642 47.967 0.000
5049 1 158.352 46.737 0.000
5050 1 159.773 46.737 0.000
5051 2 159.773 46.737 -1.500
5052 3 160.873 46.737 -1.633
5053 3 158.673 46.737 -1.633
5054 2 159.773 46.737 -3.040
5055 3 160.873 46.737 -3.173
5056 3 159.223 47.690 -3.173
5057 3 159.223 45.784 -3.173
5058 1 160.483 47.967 0.000
5059 1 161.903 47.967 0.000
5060 1 162.613 46.737 0.000
5061 1 164.033 46.737 0.000
5062 1 164.743 47.967 0.000
5063 1 166.163 47.967 0.000
5064 1 166.874 46.737 0.000
5065 1 168.294 46.737 0.000
5066 1 169.004 47.967 0.000
5067 1 170.424 47.967 0.000
5068 1 171.134 46.737 0.000
5069 1 172.554 46.737 0.000
5070 1 173.264 47.967 0.000
5071 1 174.685 47.967 0.000
5072 1 175.395 46.737 0.000
5073 1 176.815 46.737 0.000
5074 1 177.525 47.967 0.000
5075 1 178.945 47.967 0.000
5076 1 179.655 46.737 0.000
5077 1 181.076 46.737 0.000
5078 1 181.786 47.967 0.000
5079 1 183.206 47.967 0.000
5080 1 183.916 46.737 0.000
5081 1 185.336 46.737 0.000
5082 1 186.046 47.967 0.000
5083 1 187.466 47.967 0.000
5084 1 188.177 46.737 0.000
5085 1 189.597 46.737 0.000
5086 1 190.307 47.967 0.000
5087 1 191.727 47.967 0.000
5088 1 192.437 46.737 0.000
5089 1 193.857 46.737 0.000
5090 1 194.567 47.967 0.000
5091 1 195.988 47.967 0.000
5092 1 196.698 46.737 0.000
5093 1 198.118 46.737 0.000
5094 1 198.828 47.967 0.000
5095 1 200.248 47.967 0.000
5096 1 200.958 46.737 0.000
5097 1 202.379 46.737 0.000
5098 1 203.089 47.967 0.000
5099 1 204.509 47.967 0.000
5100 1 205.219 46.737 0.000
5101 1 206.639 46.737 0.000
5102 1 207.349 47.967 0.000
5103 3 207.349 47.967 1.100
5104 1 208.769 47.967 0.000
5105 1 209.480 46.737 0.000
5106 1 210.900 46.737 0.000
5107 1 211.610 47.967 0.000
5108 2 211.610 47.967 -1.500
5109 3 212.710 47.967 -1.633
5110 3 210.510 47.967 -1.633
5111 2 211.610 47.967 -3.040
5112 3 212.710 47.967 -3.173
5113 3 211.060 48.920 -3.173
5114 3 211.060 47.014 -3.173
5115 1 213.030 47.967 0.000
5116 1 213.740 46.737 0.000
5117 1 215.160 46.737 0.000
5118 1 215.870 47.967 0.000
5119 1 217.291 47.967 0.000
5120 1 218.001 46.737 0.000
5121 1 219.421 46.737 0.000
5122 1 220.131 47.967 0.000
5123 1 221.551 47.967 0.000
5124 1 222.261 46.737 0.000
5125 1 223.681 46.737 0.000
5126 1 224.392 47.967 0.000
5127 1 225.812 47.967 0.000
5128 1 226.522 46.737 0.000
5129 1 227.942 46.737 0.000
5130 1 228.652 47.967 0.000
5131 1 230.072 47.967 0.000
5132 1 230.783 46.737 0.000
5133 2 230.783 46.737 1.500
5134 3 231.883 46.737 1.633
5135 3 230.233 47.690 1.633
5136 3 230.233 45.784 1.633
5137 1 232.203 46.737 0.000
5138 1 232.913 47.967 0.000
5139 1 234.333 47.967 0.000
5140 1 235.043 46.737 0.000
5141 1 236.463 46.737 0.000
5142 1 237.173 47.967 0.000
5143 1 238.594 47.967 0.000
5144 1 239.304 46.737 0.000
5145 1 240.724 46.737 0.000
5146 1 241.434 47.967 0.000
5147 1 242.854 47.967 0.000
5148 1 243.564 46.737 0.000
5149 1 244.985 46.737 0.000
5150 1 245.695 47.967 0.000
5151 1 247.115 47.967 0.000
5152 1 247.825 46.737 0.000
5153 1 249.245 46.737 0.000
5154 1 249.955 47.967 0.000
5155 1 0.000 50.427 0.000
5156 1 0.710 49.197 0.000
5157 1 2.130 49.197 0.000
5158 1 2.840 50.427 0.000
5159 1 4.261 50.427 0.000
5160 1 4.971 49.197 0.000
5161 1 6.391 49.197 0.000
5162 1 7.101 50.427 0.000
5163 1 8.521 50.427 0.000
5164 1 9.231 49.197 0.000
5165 1 10.652 49.197 0.000
5166 1 11.362 50.427 0.000
5167 1 12.782 50.427 0.000
5168 1 13.492 49.197 0.000
5169 1 14.912 49.197 0.000
5170 1 15.622 50.427 0.000
5171 1 17.042 50.427 0.000
5172 1 17.753 49.197 0.000
5173 1 19.173 49.197 0.000
5174 1 19.883 50.427 0.000
5175 1 21.303 50.427 0.000
5176 1 22.013 49.197 0.000
5177 1 23.433 49.197 0.000
5178 1 24.143 50.427 0.000
5179 1 25.564 50.427 0.000
5180 1 26.274 49.197 0.000
5181 1 27.694 49.197 0.000
5182 1 28.404 50.427 0.000
5183 1 29.824 50.427 0.000
5184 1 30.534 49.197 0.000
5185 1 31.954 49.197 0.000
5186 1 32.665 50.427 0.000
5187 1 34.085 50.427 0.000
5188 1 34.795 49.197 0.000
5189 1 36.215 49.197 0.000
5190 1 36.925 50.427 0.000
5191 1 38.345 50.427 0.000
5192 1 39.055 49.197 0.000
5193 1 40.476 49.197 0.000
5194 1 41.186 50.427 0.000
5195 1 42.606 50.427 0.000
5196 1 43.316 49.197 0.000
5197 1 44.736 49.197 0.000
5198 1 45.446 50.427 0.000
5199 1 46.867 50.427 0.000
5200 1 47.577 49.197 0.000
5201 1 48.997 49.197 0.000
5202 1 49.707 50.427 0.000
5203 1 51.127 50.427 0.000
5204 1 51.837 49.197 0.000
5205 1 53.258 49.197 0.000
5206 1 53.968 50.427 0.000
5207 1 55.388 50.427 0.000
5208 1 56.098 49.197 0.000
5209 1 57.518 49.197 0.000
5210 1 58.228 50.427 0.000
5211 1 59.648 50.427 0.000
5212 1 60.358 49.197 0.000
5213 1 61.779 49.197 0.000
5214 1 62.489 50.427 0.000
5215 1 63.909 50.427 0.000
5216 1 64.619 49.197 0.000
5217 1 66.039 49.197 0.000
5218 1 66.749 50.427 0.000
5219 1 68.170 50.427 0.000
5220 1 68.880 49.197 0.000
5221 1 70.300 49.197 0.000
5222 1 71.010 50.427 0.000
5223 1 72.430 50.427 0.000
5224 1 73.140 49.197 0.000
5225 1 74.561 49.197 0.000
5226 1 75.271 50.427 0.000
5227 1 76.691 50.427 0.000
5228 1 77.401 49.197 0.000
5229 1 78.821 49.197 0.000
5230 1 79.531 50.427 0.000
5231 1 80.951 50.427 0.000
5232 1 81.662 49.197 0.000
5233 1 83.082 49.197 0.000
5234 1 83.792 50.427 0.000
5235 1 85.212 50.427 0.000
5236 1 85.922 49.197 0.000
5237 1 87.342 49.197 0.000
5238 1 88.052 50.427 0.000
5239 1 89.473 50.427 0.000
5240 1 90.183 49.197 0.000
5241 1 91.603 49.197 0.000
5242 1 92.313 50.427 0.000
5243 1 93.733 50.427 0.000
5244 1 94.443 49.197 0.000
5245 1 95.864 49.197 0.000
5246 1 96.574 50.427 0.000
5247 1 97.994 50.427 0.000
5248 1 98.704 49.197 0.000
5249 1 100.124 49.197 0.000
5250 1 100.834 50.427 0.000
5251 1 102.254 50.427 0.000
5252 1 102.965 49.197 0.000
5253 1 104.385 49.197 0.000
5254 1 105.095 50.427 0.000
5255 1 106.515 50.427 0.000
5256 1 107.225 49.197 0.000
5257 1 108.645 49.197 0.000
5258 1 109.355 50.427 0.000
5259 1 110.776 50.427 0.000
5260 2 110.776 50.427 1.500
5261 3 111.876 50.427 1.633
5262 3 110.226 51.380 1.633
5263 3 110.226 49.474 1.633
5264 1 111.486 49.197 0.000
5265 1 112.906 49.197 0.000
5266 1 113.616 50.427 0.000
5267 1 115.036 50.427 0.000
5268 1 115.746 49.197 0.000
5269 1 117.167 49.197 0.000
5270 1 117.877 50.427 0.000
5271 1 119.297 50.427 0.000
5272 1 120.007 49.197 0.000
5273 1 121.427 49.197 0.000
5274 1 122.137 50.427 0.000
5275 1 123.557 50.427 0.000
5276 1 124.267 49.197 0.000
5277 1 125.688 49.197 0.000
5278 1 126.398 50.427 0.000
5279 1 127.818 50.427 0.000
5280 1 128.528 49.197 0.000
5281 1 129.948 49.197 0.000
5282 1 130.658 50.427 0.000
5283 3 130.658 50.427 -1.100
5284 1 132.079 50.427 0.000
5285 1 132.789 49.197 0.000
5286 1 134.209 49.197 0.000
5287 1 134.919 50.427 0.000
5288 1 136.339 50.427 0.000
5289 1 137.049 49.197 0.000
5290 3 137.049 49.197 1.100
5291 1 138.470 49.197 0.000
5292 1 139.180 50.427 0.000
5293 1 140.600 50.427 0.000
5294 1 141.310 49.197 0.000
5295 1 142.730 49.197 0.000
5296 1 143.440 50.427 0.000
5297 1 144.860 50.427 0.000
5298 1 145.571 49.197 0.000
5299 1 146.991 49.197 0.000
5300 1 147.701 50.427 0.000
5301 1 149.121 50.427 0.000
5302 1 149.831 49.197 0.000
5303 1 151.251 49.197 0.000
5304 1 151.961 50.427 0.000
5305 1 153.382 50.427 0.000
5306 1 154.092 49.197 0.000
5307 1 155.512 49.197 0.000
5308 1 156.222 50.427 0.000
5309 1 157.642 50.427 0.000
5310 1 158.352 49.197 0.000
5311 1 159.773 49.197 0.000
5312 1 160.483 50.427 0.000
5313 1 161.903 50.427 0.000
5314 1 162.613 49.197 0.000
5315 1 164.033 49.197 0.000
5316 1 164.743 50.427 0.000
5317 1 166.163 50.427 0.000
5318 1 166.874 49.197 0.000
5319 1 168.294 49.197 0.000
5320 1 169.004 50.427 0.000
5321 1 170.424 50.427 0.000
5322 1 171.134 49.197 0.000
5323 1 172.554 49.197 0.000
5324 1 173.264 50.427 0.000
5325 1 174.685 50.427 0.000
5326 1 175.395 49.197 0.000
5327 1 176.815 49.197 0.000
5328 1 177.525 50.427 0.000
5329 1 178.945 50.427 0.000
5330 1 179.655 49.197 0.000
5331 1 181.076 49.197 0.000
5332 1 181.786 50.427 0.000
5333 1 183.206 50.427 0.000
5334 1 183.916 49.197 0.000
5335 1 185.336 49.197 0.000
5336 1 186.046 50.427 0.000
5337 1 187.466 50.427 0.000
5338 1 188.177 49.197 0.000
5339 2 188.177 49.197 1.500
5340 3 189.277 49.197 1.633
5341 3 187.077 49.197 1.633
5342 2 188.177 49.197 3.040
5343 3 189.277 49.197 3.173
5344 3 187.627 50.150 3.173
5345 3 187.627 48.244 3.173
5346 1 189.597 49.197 0.000
5347 1 190.307 50.427 0.000
5348 1 191.727 50.427 0.000
5349 1 192.437 49.197 0.000
5350 1 193.857 49.197 0.000
5351 1 194.567 50.427 0.000
5352 1 195.988 50.427 0.000
5353 1 196.698 49.197 0.000
5354 1 198.118 49.197 0.000
5355 1 198.828 50.427 0.000
5356 1 200.248 50.427 0.000
5357 1 200.958 49.197 0.000
5358 1 202.379 49.197 0.000
5359 1 203.089 50.427 0.000
5360 1 204.509 50.427 0.000
5361 1 205.219 49.197 0.000
5362 1 206.639 49.197 0.000
5363 1 207.349 50.427 0.000
5364 1 208.769 50.427 0.000
5365 3 208.769 50.427 1.100
5366 1 209.480 49.197 0.000
5367 1 210.900 49.197 0.000
5368 1 211.610 50.427 0.000
5369 1 213.030 50.427 0.000
5370 1 213.740 49.197 0.000
5371 1 215.160 49.197 0.000
5372 1 215.870 50.427 0.000
5373 1 217.291 50.427 0.000
5374 1 218.001 49.197 0.000
5375 1 219.421 49.197 0.000
5376 1 220.131 50.427 0.000
5377 3 220.131 50.427 -1.100
5378 1 221.551 50.427 0.000
5379 1 222.261 49.197 0.000
5380 1 223.681 49.197 0.000
5381 1 224.392 50.427 0.000
5382 1 225.812 50.427 0.000
5383 1 226.522 49.197 0.000
5384 1 227.942 49.197 0.000
5385 1 228.652 50.427 0.000
5386 1 230.072 50.427 0.000
5387 1 230.783 49.197 0.000
5388 1 232.203 49.197 0.000
5389 3 232.203 49.197 -1.100
5390 1 232.913 50.427 0.000
5391 1 234.333 50.427 0.000
5392 1 235.043 49.197 0.000
5393 1 236.463 49.197 0.000
5394 1 237.173 50.427 0.000
5395 1 238.594 50.427 0.000
5396 3 238.594 50.427 -1.100
5397 1 239.304 49.197 0.000
5398 1 240.724 49.197 0.000
5399 3 240.724 49.197 1.100
5400 1 241.434 50.427 0.000
5401 3 241.434 50.427 -1.100
5402 1 242.854 50.427 0.000
5403 1 243.564 49.197 0.000
5404 1 244.985 49.197 0.000
5405 1 245.695 50.427 0.000
5406 1 247.115 50.427 0.000
5407 1 247.825 49.197 0.000
5408 1 249.245 49.197 0.000
5409 1 249.955 50.427 0.000
5410 1 0.000 52.887 0.000
5411 1 0.710 51.657 0.000
5412 1 2.130 51.657 0.000
5413 1 2.840 52.887 0.000
5414 1 4.261 52.887 0.000
5415 1 4.971 51.657 0.000
5416 1 6.391 51.657 0.000
5417 1 7.101 52.887 0.000
5418 1 8.521 52.887 0.000
5419 1 9.231 51.657 0.000
5420 1 10.652 51.657 0.000
5421 1 11.362 52.887 0.000
5422 1 12.782 52.887 0.000
5423 1 13.492 51.657 0.000
5424 1 14.912 51.657 0.000
5425 1 15.622 52.887 0.000
5426 1 17.042 52.887 0.000
5427 1 17.753 51.657 0.000
5428 1 19.173 51.657 0.000
5429 1 19.883 52.887 0.000
5430 1 21.303 52.887 0.000
5431 1 22.013 51.657 0.000
5432 1 23.433 51.657 0.000
5433 1 24.143 52.887 0.000
5434 1 25.564 52.887 0.000
5435 1 26.274 51.657 0.000
5436 1 27.694 51.657 0.000
5437 1 28.404 52.887 0.000
5438 1 29.824 52.887 0.000
5439 1 30.534 51.657 0.000
5440 1 31.954 51.657 0.000
5441 1 32.665 52.887 0.000
5442 1 34.085 52.887 0.000
5443 1 34.795 51.657 0.000
5444 1 36.215 51.657 0.000
5445 1 36.925 52.887 0.000
5446 1 38.345 52.887 0.000
5447 1 39.055 51.657 0.000
5448 1 40.476 51.657 0.000
5449 1 41.186 52.887 0.000
5450 3 41.186 52.887 -1.100
5451 1 42.606 52.887 0.000
5452 1 43.316 51.657 0.000
5453 1 44.736 51.657 0.000
5454 1 45.446 52.887 0.000
5455 1 46.867 52.887 0.000
5456 1 47.577 51.657 0.000
5457 1 48.997 51.657 0.000
5458 1 49.707 52.887 0.000
5459 1 51.127 52.887 0.000
5460 1 51.837 51.657 0.000
5461 1 53.258 51.657 0.000
5462 1 53.968 52.887 0.000
5463 1 55.388 52.887 0.000
5464 1 56.098 51.657 0.000
5465 1 57.518 51.657 0.000
5466 1 58.228 52.887 0.000
5467 1 59.648 52.887 0.000
5468 1 60.358 51.657 0.000
5469 1 61.779 51.657 0.000
5470 1 62.489 52.887 0.000
5471 1 63.909 52.887 0.000
5472 1 64.619 51.657 0.000
5473 1 66.039 51.657 0.000
5474 1 66.749 52.887 0.000
5475 1 68.170 52.887 0.000
5476 1 68.880 51.657 0.000
5477 1 70.300 51.657 0.000
5478 1 71.010 52.887 0.000
5479 1 72.430 52.887 0.000
5480 1 73.140 51.657 0.000
5481 1 74.561 51.657 0.000
5482 1 75.271 52.887 0.000
5483 1 76.691 52.887 0.000
5484 1 77.401 51.657 0.000
5485 1 78.821 51.657 0.000
5486 1 79.531 52.887 0.000
5487 1 80.951 52.887 0.000
5488 1 81.662 51.657 0.000
5489 1 83.082 51.657 0.000
5490 1 83.792 52.887 0.000
5491 1 85.212 52.887 0.000
5492 1 85.922 51.657 0.000
5493 1 87.342 51.657 0.000
5494 1 88.052 52.887 0.000
5495 1 89.473 52.887 0.000
5496 1 90.183 51.657 0.000
5497 1 91.603 51.657 0.000
5498 1 92.313 52.887 0.000
5499 1 93.733 52.887 0.000
5500 1 94.443 51.657 0.000
5501 1 95.864 51.657 0.000
5502 1 96.574 52.887 0.000
5503 1 97.994 52.887 0.000
5504 1 98.704 51.657 0.000
5505 1 100.124 51.657 0.000
5506 1 100.834 52.887 0.000
5507 1 102.254 52.887 0.000
5508 3 102.254 52.887 -1.100
5509 1 102.965 51.657 0.000
5510 1 104.385 51.657 0.000
5511 1 105.095 52.887 0.000
5512 1 106.515 52.887 0.000
5513 1 107.225 51.657 0.000
5514 1 108.645 51.657 0.000
5515 1 109.355 52.887 0.000
5516 1 110.776 52.887 0.000
5517 1 111.486 51.657 0.000
5518 1 112.906 51.657 0.000
5519 1 113.616 52.887 0.000
5520 1 115.036 52.887 0.000
5521 1 115.746 51.657 0.000
5522 1 117.167 51.657 0.000
5523 1 117.877 52.887 0.000
5524 1 119.297 52.887 0.000
5525 1 120.007 51.657 0.000
5526 1 121.427 51.657 0.000
5527 1 122.137 52.887 0.000
5528 1 123.557 52.887 0.000
5529 1 124.267 51.657 0.000
5530 1 125.688 51.657 0.000
5531 1 126.398 52.887 0.000
5532 1 127.818 52.887 0.000
5533 1 128.528 51.657 0.000
5534 1 129.948 51.657 0.000
5535 1 130.658 52.887 0.000
5536 1 132.079 52.887 0.000
5537 1 132.789 51.657 0.000
5538 1 134.209 51.657 0.000
5539 1 134.919 52.887 0.000
5540 1 136.339 52.887 0.000
5541 1 137.049 51.657 0.000
5542 1 138.470 51.657 0.000
5543 1 139.180 52.887 0.000
5544 1 140.600 52.887 0.000
5545 1 141.310 51.657 0.000
5546 1 142.730 51.657 0.000
5547 1 143.440 52.887 0.000
5548 1 144.860 52.887 0.000
5549 1 145.571 51.657 0.000
5550 1 146.991 51.657 0.000
5551 1 147.701 52.887 0.000
5552 1 149.121 52.887 0.000
5553 1 149.831 51.657 0.000
5554 1 151.251 51.657 0.000
5555 1 151.961 52.887 0.000
5556 1 153.382 52.887 0.000
5557 1 154.092 51.657 0.000
5558 1 155.512 51.657 0.000
5559 1 156.222 52.887 0.000
5560 1 157.642 52.887 0.000
5561 1 158.352 51.657 0.000
5562 1 159.773 51.657 0.000
5563 1 160.483 52.887 0.000
5564 1 161.903 52.887 0.000
5565 1 162.613 51.657 0.000
5566 1 164.033 51.657 0.000
5567 1 164.743 52.887 0.000
5568 1 166.163 52.887 0.000
5569 1 166.874 51.657 0.000
5570 1 168.294 51.657 0.000
5571 1 169.004 52.887 0.000
5572 1 170.424 52.887 0.000
5573 1 171.134 51.657 0.000
5574 1 172.554 51.657 0.000
5575 1 173.264 52.887 0.000
5576 1 174.685 52.887 0.000
5577 1 175.395 51.657 0.000
5578 1 176.815 51.657 0.000
5579 1 177.525 52.887 0.000
5580 1 178.945 52.887 0.000
5581 1 179.655 51.657 0.000
5582 1 181.076 51.657 0.000
5583 1 181.786 52.887 0.000
5584 1 183.206 52.887 0.000
5585 1 183.916 51.657 0.000
5586 1 185.336 51.657 0.000
5587 1 186.046 52.887 0.000
5588 1 187.466 52.887 0.000
5589 1 188.177 51.657 0.000
5590 1 189.597 51.657 0.000
5591 1 190.307 52.887 0.000
5592 1 191.727 52.887 0.000
5593 1 192.437 51.657 0.000
5594 1 193.857 51.657 0.000
5595 1 194.567 52.887 0.000
5596 1 195.988 52.887 0.000
5597 1 196.698 51.657 0.000
5598 3 196.698 51.657 1.100
5599 1 198.118 51.657 0.000
5600 1 198.828 52.887 0.000
5601 1 200.248 52.887 0.000
5602 1 200.958 51.657 0.000
5603 1 202.379 51.657 0.000
5604 1 203.089 52.887 0.000
5605 1 204.509 52.887 0.000
5606 1 205.219 51.657 0.000
5607 1 206.639 51.657 0.000
5608 1 207.349 52.887 0.000
5609 1 208.769 52.887 0.000
5610 1 209.480 51.657 0.000
5611 1 210.900 51.657 0.000
5612 1 211.610 52.887 0.000
5613 1 213.030 52.887 0.000
5614 1 213.740 51.657 0.000
5615 1 215.160 51.657 0.000
5616 1 215.870 52.887 0.000
5617 1 217.291 52.887 0.000
5618 1 218.001 51.657 0.000
5619 1 219.421 51.657 0.000
5620 1 220.131 52.887 0.000
5621 1 221.551 52.887 0.000
5622 1 222.261 51.657 0.000
5623 1 223.681 51.657 0.000
5624 1 224.392 52.887 0.000
5625 1 225.812 52.887 0.000
5626 1 226.522 51.657 0.000
5627 1 227.942 51.657 0.000
5628 1 228.652 52.887 0.000
5629 1 230.072 52.887 0.000
5630 1 230.783 51.657 0.000
5631 1 232.203 51.657 0.000
5632 2 232.203 51.657 -1.500
5633 3 233.303 51.657 -1.633
5634 3 231.103 51.657 -1.633
5635 2 232.203 51.657 -3.040
5636 3 233.303 51.657 -3.173
5637 3 231.653 52.610 -3.173
5638 3 231.653 50.704 -3.173
5639 1 232.913 52.887 0.000
5640 1 234.333 52.887 0.000
5641 1 235.043 51.657 0.000
5642 3 235.043 51.657 1.100
5643 1 236.463 51.657 0.000
5644 1 237.173 52.887 0.000
5645 3 237.173 52.887 -1.100
5646 1 238.594 52.887 0.000
5647 1 239.304 51.657 0.000
5648 1 240.724 51.657 0.000
5649 1 241.434 52.887 0.000
5650 1 242.854 52.887 0.000
5651 1 243.564 51.657 0.000
5652 1 244.985 51.657 0.000
5653 1 245.695 52.887 0.000
5654 1 247.115 52.887 0.000
5655 1 247.825 51.657 0.000
5656 1 249.245 51.657 0.000
5657 1 249.955 52.887 0.000
5658 1 0.000 55.347 0.000
5659 1 0.710 54.117 0.000
5660 1 2.130 54.117 0.000
5661 1 2.840 55.347 0.000
5662 1 4.261 55.347 0.000
5663 1 4.971 54.117 0.000
5664 1 6.391 54.117 0.000
5665 1 7.101 55.347 0.000
5666 1 8.521 55.347 0.000
5667 1 9.231 54.117 0.000
5668 1 10.652 54.117 0.000
5669 1 11.362 55.347 0.000
5670 1 12.782 55.347 0.000
5671 1 13.492 54.117 0.000
5672 1 14.912 54.117 0.000
5673 1 15.622 55.347 0.000
5674 1 17.042 55.347 0.000
5675 1 17.753 54.117 0.000
5676 1 19.173 54.117 0.000
5677 1 19.883 55.347 0.000
5678 1 21.303 55.347 0.000
5679 1 22.013 54.117 0.000
5680 3 22.013 54.117 1.100
5681 1 23.433 54.117 0.000
5682 1 24.143 55.347 0.000
5683 1 25.564 55.347 0.000
5684 1 26.274 54.117 0.000
5685 1 27.694 54.117 0.000
5686 1 28.404 55.347 0.000
5687 1 29.824 55.347 0.000
5688 1 30.534 54.117 0.000
5689 1 31.954 54.117 0.000
5690 1 32.665 55.347 0.000
5691 1 34.085 55.347 0.000
5692 1 34.795 54.117 0.000
5693 1 36.215 54.117 0.000
5694 1 36.925 55.347 0.000
5695 3 36.925 55.347 -1.100
5696 1 38.345 55.347 0.000
5697 1 39.055 54.117 0.000
5698 1 40.476 54.117 0.000
5699 3 40.476 54.117 1.100
5700 1 41.186 55.347 0.000
5701 1 42.606 55.347 0.000
5702 1 43.316 54.117 0.000
5703 1 44.736 54.117 0.000
5704 1 45.446 55.347 0.000
5705 1 46.867 55.347 0.000
5706 1 47.577 54.117 0.000
5707 1 48.997 54.117 0.000
5708 1 49.707 55.347 0.000
5709 3 49.707 55.347 1.100
5710 1 51.127 55.347 0.000
5711 1 51.837 54.117 0.000
5712 1 53.258 54.117 0.000
5713 1 53.968 55.347 0.000
5714 1 55.388 55.347 0.000
5715 1 56.098 54.117 0.000
5716 1 57.518 54.117 0.000
5717 1 58.228 55.347 0.000
5718 1 59.648 55.347 0.000
5719 1 60.358 54.117 0.000
5720 1 61.779 54.117 0.000
5721 1 62.489 55.347 0.000
5722 1 63.909 55.347 0.000
5723 1 64.619 54.117 0.000
5724 1 66.039 54.117 0.000
5725 1 66.749 55.347 0.000
5726 1 68.170 55.347 0.000
5727 1 68.880 54.117 0.000
5728 1 70.300 54.117 0.000
5729 1 71.010 55.347 0.000
5730 1 72.430 55.347 0.000
5731 1 73.140 54.117 0.000
5732 1 74.561 54.117 0.000
5733 1 75.271 55.347 0.000
5734 1 76.691 55.347 0.000
5735 1 77.401 54.117 0.000
5736 1 78.821 54.117 0.000
5737 1 79.531 55.347 0.000
5738 1 80.951 55.347 0.000
5739 1 81.662 54.117 0.000
5740 1 83.082 54.117 0.000
5741 1 83.792 55.347 0.000
5742 1 85.212 55.347 0.000
5743 1 85.922 54.117 0.000
5744 1 87.342 54.117 0.000
5745 1 88.052 55.347 0.000
5746 1 89.473 55.347 0.000
5747 1 90.183 54.117 0.000
5748 1 91.603 54.117 0.000
5749 1 92.313 55.347 0.000
5750 1 93.733 55.347 0.000
5751 1 94.443 54.117 0.000
5752 1 95.864 54.117 0.000
5753 1 96.574 55.347 0.000
5754 1 97.994 55.347 0.000
5755 1 98.704 54.117 0.000
5756 1 100.124 54.117 0.000
5757 1 100.834 55.347 0.000
5758 1 102.254 55.347 0.000
5759 1 102.965 54.117 0.000
5760 1 104.385 54.117 0.000
5761 1 105.095 55.347 0.000
5762 1 106.515 55.347 0.000
5763 1 107.225 54.117 0.000
5764 1 108.645 54.117 0.000
5765 1 109.355 55.347 0.000
5766 1 110.776 55.347 0.000
5767 1 111.486 54.117 0.000
5768 1 112.906 54.117 0.000
5769 1 113.616 55.347 0.000
5770 1 115.036 55.347 0.000
5771 1 115.746 54.117 0.000
5772 1 117.167 54.117 0.000
5773 1 117.877 55.347 0.000
5774 1 119.297 55.347 0.000
5775 1 120.007 54.117 0.000
5776 1 121.427 54.117 0.000
5777 1 122.137 55.347 0.000
5778 1 123.557 55.347 0.000
5779 1 124.267 54.117 0.000
5780 1 125.688 54.117 0.000
5781 1 126.398 55.347 0.000
5782 1 127.818 55.347 0.000
5783 1 128.528 54.117 0.000
5784 1 129.948 54.117 0.000
5785 1 130.658 55.347 0.000
5786 1 132.079 55.347 0.000
5787 1 132.789 54.117 0.000
5788 1 134.209 54.117 0.000
5789 1 134.919 55.347 0.000
5790 1 136.339 55.347 0.000
5791 1 137.049 54.117 0.000
5792 1 138.470 54.117 0.000
5793 1 139.180 55.347 0.000
5794 1 140.600 55.347 0.000
5795 1 141.310 54.117 0.000
5796 1 142.730 54.117 0.000
5797 1 143.440 55.347 0.000
5798 1 144.860 55.347 0.000
5799 1 145.571 54.117 0.000
5800 1 146.991 54.117 0.000
5801 3 146.991 54.117 -1.100
5802 1 147.701 55.347 0.000
5803 1 149.121 55.347 0.000
5804 1 149.831 54.117 0.000
5805 1 151.251 54.117 0.000
5806 1 151.961 55.347 0.000
5807 1 153.382 55.347 0.000
5808 1 154.092 54.117 0.000
5809 1 155.512 54.117 0.000
5810 1 156.222 55.347 0.000
5811 1 157.642 55.347 0.000
5812 1 158.352 54.117 0.000
5813 1 159.773 54.117 0.000
5814 1 160.483 55.347 0.000
5815 1 161.903 55.347 0.000
5816 1 162.613 54.117 0.000
5817 1 164.033 54.117 0.000
5818 1 164.743 55.347 0.000
5819 1 166.163 55.347 0.000
5820 1 166.874 54.117 0.000
5821 1 168.294 54.117 0.000
5822 1 169.004 55.347 0.000
5823 1 170.424 55.347 0.000
5824 1 171.134 54.117 0.000
5825 1 172.554 54.117 0.000
5826 1 173.264 55.347 0.000
5827 1 174.685 55.347 0.000
5828 1 175.395 54.117 0.000
5829 1 176.815 54.117 0.000
5830 1 177.525 55.347 0.000
5831 1 178.945 55.347 0.000
5832 1 179.655 54.117 0.000
5833 1 181.076 54.117 0.000
5834 1 181.786 55.347 0.000
5835 1 183.206 55.347 0.000
5836 1 183.916 54.117 0.000
5837 1 185.336 54.117 0.000
5838 1 186.046 55.347 0.000
5839 1 187.466 55.347 0.000
5840 1 188.177 54.117 0.000
5841 1 189.597 54.117 0.000
5842 1 190.307 55.347 0.000
5843 1 191.727 55.347 0.000
5844 1 192.437 54.117 0.000
5845 1 193.857 54.117 0.000
5846 1 194.567 55.347 0.000
5847 1 195.988 55.347 0.000
5848 1 196.698 54.117 0.000
5849 1 198.118 54.117 0.000
5850 1 198.828 55.347 0.000
5851 1 200.248 55.347 0.000
5852 1 200.958 54.117 0.000
5853 1 202.379 54.117 0.000
5854 1 203.089 55.347 0.000
5855 1 204.509 55.347 0.000
5856 3 204.509 55.347 -1.100
5857 1 205.219 54.117 0.000
5858 1 206.639 54.117 0.000
5859 1 207.349 55.347 0.000
5860 1 208.769 55.347 0.000
5861 1 209.480 54.117 0.000
5862 1 210.900 54.117 0.000
5863 3 210.900 54.117 -1.100
5864 1 211.610 55.347 0.000
5865 1 213.030 55.347 0.000
5866 1 213.740 54.117 0.000
5867 1 215.160 54.117 0.000
5868 1 215.870 55.347 0.000
5869 1 217.291 55.347 0.000
5870 1 218.001 54.117 0.000
5871 1 219.421 54.117 0.000
5872 1 220.131 55.347 0.000
5873 1 221.551 55.347 0.000
5874 1 222.261 54.117 0.000
5875 1 223.681 54.117 0.000
5876 1 224.392 55.347 0.000
5877 1 225.812 55.347 0.000
5878 1 226.522 54.117 0.000
5879 1 227.942 54.117 0.000
5880 1 228.652 55.347 0.000
5881 1 230.072 55.347 0.000
5882 1 230.783 54.117 0.000
5883 1 232.203 54.117 0.000
5884 1 232.913 55.347 0.000
5885 1 234.333 55.347 0.000
5886 1 235.043 54.117 0.000
5887 1 236.463 54.117 0.000
5888 1 237.173 55.347 0.000
5889 1 238.594 55.347 0.000
5890 1 239.304 54.117 0.000
5891 1 240.724 54.117 0.000
5892 1 241.434 55.347 0.000
5893 1 242.854 55.347 0.000
5894 1 243.564 54.117 0.000
5895 1 244.985 54.117 0.000
5896 1 245.695 55.347 0.000
5897 1 247.115 55.347 0.000
5898 1 247.825 54.117 0.000
5899 1 249.245 54.117 0.000
5900 1 249.955 55.347 0.000
5901 1 0.000 57.807 0.000
5902 1 0.710 56.577 0.000
5903 1 2.130 56.577 0.000
5904 1 2.840 57.807 0.000
5905 1 4.261 57.807 0.000
5906 1 4.971 56.577 0.000
5907 1 6.391 56.577 0.000
5908 1 7.101 57.807 0.000
5909 3 7.101 57.807 -1.100
5910 1 8.521 57.807 0.000
5911 1 9.231 56.577 0.000
5912 1 10.652 56.577 0.000
5913 1 11.362 57.807 0.000
5914 1 12.782 57.807 0.000
5915 1 13.492 56.577 0.000
5916 1 14.912 56.577 0.000
5917 1 15.622 57.807 0.000
5918 1 17.042 57.807 0.000
5919 1 17.753 56.577 0.000
5920 1 19.173 56.577 0.000
5921 1 19.883 57.807 0.000
5922 1 21.303 57.807 0.000
5923 1 22.013 56.577 0.000
5924 1 23.433 56.577 0.000
5925 1 24.143 57.807 0.000
5926 1 25.564 57.807 0.000
5927 1 26.274 56.577 0.000
5928 1 27.694 56.577 0.000
5929 1 28.404 57.807 0.000
5930 1 29.824 57.807 0.000
5931 1 30.534 56.577 0.000
5932 1 31.954 56.577 0.000
5933 1 32.665 57.807 0.000
5934 1 34.085 57.807 0.000
5935 1 34.795 56.577 0.000
5936 1 36.215 56.577 0.000
5937 1 36.925 57.807 0.000
5938 1 38.345 57.807 0.000
5939 1 39.055 56.577 0.000
5940 1 40.476 56.577 0.000
5941 1 41.186 57.807 0.000
5942 1 42.606 57.807 0.000
5943 1 43.316 56.577 0.000
5944 1 44.736 56.577 0.000
5945 1 45.446 57.807 0.000
5946 1 46.867 57.807 0.000
5947 1 47.577 56.577 0.000
5948 3 47.577 56.577 -1.100
5949 1 48.997 56.577 0.000
5950 1 49.707 57.807 0.000
5951 1 51.127 57.807 0.000
5952 1 51.837 56.577 0.000
5953 1 53.258 56.577 0.000
5954 1 53.968 57.807 0.000
5955 1 55.388 57.807 0.000
5956 1 56.098 56.577 0.000
5957 1 57.518 56.577 0.000
5958 1 58.228 57.807 0.000
5959 1 59.648 57.807 0.000
5960 1 60.358 56.577 0.000
5961 1 61.779 56.577 0.000
5962 1 62.489 57.807 0.000
5963 1 63.909 57.807 0.000
5964 1 64.619 56.577 0.000
5965 1 66.039 56.577 0.000
5966 1 66.749 57.807 0.000
5967 1 68.170 57.807 0.000
5968 1 68.880 56.577 0.000
5969 1 70.300 56.577 0.000
5970 1 71.010 57.807 0.000
5971 1 72.430 57.807 0.000
5972 1 73.140 56.577 0.000
5973 1 74.561 56.577 0.000
5974 1 75.271 57.807 0.000
5975 1 76.691 57.807 0.000
5976 1 77.401 56.577 0.000
5977 1 78.821 56.577 0.000
5978 1 79.531 57.807 0.000
5979 1 80.951 57.807 0.000
5980 1 81.662 56.577 0.000
5981 1 83.082 56.577 0.000
5982 1 83.792 57.807 0.000
5983 1 85.212 57.807 0.000
5984 1 85.922 56.577 0.000
5985 1 87.342 56.577 0.000
5986 1 88.052 57.807 0.000
5987 1 89.473 57.807 0.000
5988 1 90.183 56.577 0.000
5989 1 91.603 56.577 0.000
5990 1 92.313 57.807 0.000
5991 1 93.733 57.807 0.000
5992 1 94.443 56.577 0.000
5993 1 95.864 56.577 0.000
5994 1 96.574 57.807 0.000
5995 1 97.994 57.807 0.000
5996 1 98.704 56.577 0.000
5997 1 100.124 56.577 0.000
5998 1 100.834 57.807 0.000
5999 1 102.254 57.807 0.000
6000 1 102.965 56.577 0.000
6001 1 104.385 56.577 0.000
6002 1 105.095 57.807 0.000
6003 1 106.515 57.807 0.000
6004 1 107.225 56.577 0.000
6005 1 108.645 56.577 0.000
6006 1 109.355 57.807 0.000
6007 1 110.776 57.807 0.000
6008 3 110.776 57.807 -1.100
6009 1 111.486 56.577 0.000
6010 1 112.906 56.577 0.000
6011 1 113.616 57.807 0.000
6012 1 115.036 57.807 0.000
6013 1 115.746 56.577 0.000
6014 1 117.167 56.577 0.000
6015 1 117.877 57.807 0.000
6016 1 119.297 57.807 0.000
6017 1 120.007 56.577 0.000
6018 1 121.427 56.577 0.000
6019 1 122.137 57.807 0.000
6020 1 123.557 57.807 0.000
6021 1 124.267 56.577 0.000
6022 1 125.688 56.577 0.000
6023 1 126.398 57.807 0.000
6024 1 127.818 57.807 0.000
6025 1 128.528 56.577 0.000
6026 1 129.948 56.577 0.000
6027 1 130.658 57.807 0.000
6028 1 132.079 57.807 0.000
6029 1 132.789 56.577 0.000
6030 1 134.209 56.577 0.000
6031 1 134.919 57.807 0.000
6032 1 136.339 57.807 0.000
6033 1 137.049 56.577 0.000
6034 1 138.470 56.577 0.000
6035 1 139.180 57.807 0.000
6036 1 140.600 57.807 0.000
6037 1 141.310 56.577 0.000
6038 1 142.730 56.577 0.000
6039 1 143.440 57.807 0.000
6040 1 144.860 57.807 0.000
6041 1 145.571 56.577 0.000
6042 1 146.991 56.577 0.000
6043 1 147.701 57.807 0.000
6044 1 149.121 57.807 0.000
6045 1 149.831 56.577 0.000
6046 1 151.251 56.577 0.000
6047 1 151.961 57.807 0.000
6048 1 153.382 57.807 0.000
6049 1 154.092 56.577 0.000
6050 1 155.512 56.577 0.000
6051 1 156.222 57.807 0.000
6052 1 157.642 57.807 0.000
6053 1 158.352 56.577 0.000
6054 1 159.773 56.577 0.000
6055 1 160.483 57.807 0.000
6056 1 161.903 57.807 0.000
6057 1 162.613 56.577 0.000
6058 1 164.033 56.577 0.000
6059 1 164.743 57.807 0.000
6060 1 166.163 57.807 0.000
6061 1 166.874 56.577 0.000
6062 1 168.294 56.577 0.000
6063 3 168.294 56.577 1.100
6064 1 169.004 57.807 0.000
6065 1 170.424 57.807 0.000
6066 1 171.134 56.577 0.000
6067 1 172.554 56.577 0.000
6068 1 173.264 57.807 0.000
6069 1 174.685 57.807 0.000
6070 1 175.395 56.577 0.000
6071 1 176.815 56.577 0.000
6072 1 177.525 57.807 0.000
6073 1 178.945 57.807 0.000
6074 1 179.655 56.577 0.000
6075 1 181.076 56.577 0.000
6076 1 181.786 57.807 0.000
6077 1 183.206 57.807 0.000
6078 1 183.916 56.577 0.000
6079 1 185.336 56.577 0.000
6080 1 186.046 57.807 0.000
6081 1 187.466 57.807 0.000
6082 1 188.177 56.577 0.000
6083 1 189.597 56.577 0.000
6084 1 190.307 57.807 0.000
6085 1 191.727 57.807 0.000
6086 1 192.437 56.577 0.000
6087 1 193.857 56.577 0.000
6088 1 194.567 57.807 0.000
6089 1 195.988 57.807 0.000
6090 1 196.698 56.577 0.000
6091 1 198.118 56.577 0.000
6092 1 198.828 57.807 0.000
6093 1 200.248 57.807 0.000
6094 1 200.958 56.577 0.000
6095 1 202.379 56.577 0.000
6096 1 203.089 57.807 0.000
6097 1 204.509 57.807 0.000
6098 1 205.219 56.577 0.000
6099 1 206.639 56.577 0.000
6100 1 207.349 57.807 0.000
6101 1 208.769 57.807 0.000
6102 1 209.480 56.577 0.000
6103 1 210.900 56.577 0.000
6104 1 211.610 57.807 0.000
6105 1 213.030 57.807 0.000
6106 1 213.740 56.577 0.000
6107 1 215.160 56.577 0.000
6108 1 215.870 57.807 0.000
6109 1 217.291 57.807 0.000
6110 1 218.001 56.577 0.000
6111 1 219.421 56.577 0.000
6112 1 220.131 57.807 0.000
6113 1 221.551 57.807 0.000
6114 1 222.261 56.577 0.000
6115 1 223.681 56.577 0.000
6116 1 224.392 57.807 0.000
6117 1 225.812 57.807 0.000
6118 1 226.522 56.577 0.000
6119 1 227.942 56.577 0.000
6120 3 227.942 56.577 -1.100
6121 1 228.652 57.807 0.000
6122 1 230.072 57.807 0.000
6123 1 230.783 56.577 0.000
6124 1 232.203 56.577 0.000
6125 1 232.913 57.807 0.000
6126 1 234.333 57.807 0.000
6127 1 235.043 56.577 0.000
6128 2 235.043 56.577 -1.500
6129 3 236.143 56.577 -1.633
6130 3 233.943 56.577 -1.633
6131 2 235.043 56.577 -3.040
6132 3 236.143 56.577 -3.173
6133 3 234.493 57.530 -3.173
6134 3 234.493 55.624 -3.173
6135 1 236.463 56.577 0.000
6136 1 237.173 57.807 0.000
6137 1 238.594 57.807 0.000
6138 1 239.304 56.577 0.000
6139 1 240.724 56.577 0.000
6140 1 241.434 57.807 0.000
6141 1 242.854 57.807 0.000
6142 1 243.564 56.577 0.000
6143 1 244.985 56.577 0.000
6144 1 245.695 57.807 0.000
6145 1 247.115 57.807 0.000
6146 1 247.825 56.577 0.000
6147 1 249.245 56.577 0.000
6148 1 249.955 57.807 0.000
6149 1 0.000 60.267 0.000
6150 1 0.710 59.037 0.000
6151 1 2.130 59.037 0.000
6152 1 2.840 60.267 0.000
6153 1 4.261 60.267 0.000
6154 1 4.971 59.037 0.000
6155 1 6.391 59.037 0.000
6156 1 7.101 60.267 0.000
6157 1 8.521 60.267 0.000
6158 1 9.231 59.037 0.000
6159 1 10.652 59.037 0.000
6160 1 11.362 60.267 0.000
6161 2 11.362 60.267 1.500
6162 3 12.462 60.267 1.633
6163 3 10.262 60.267 1.633
6164 2 11.362 60.267 3.040
6165 3 12.462 60.267 3.173
6166 3 10.812 61.220 3.173
6167 3 10.812 59.314 3.173
6168 1 12.782 60.267 0.000
6169 1 13.492 59.037 0.000
6170 1 14.912 59.037 0.000
6171 1 15.622 60.267 0.000
6172 1 17.042 60.267 0.000
6173 1 17.753 59.037 0.000
6174 3 17.753 59.037 -1.100
6175 1 19.173 59.037 0.000
6176 1 19.883 60.267 0.000
6177 1 21.303 60.267 0.000
6178 1 22.013 59.037 0.000
6179 1 23.433 59.037 0.000
6180 1 24.143 60.267 0.000
6181 1 25.564 60.267 0.000
6182 1 26.274 59.037 0.000
6183 1 27.694 59.037 0.000
6184 1 28.404 60.267 0.000
6185 1 29.824 60.267 0.000
6186 1 30.534 59.037 0.000
6187 1 31.954 59.037 0.000
6188 1 32.665 60.267 0.000
6189 1 34.085 60.267 0.000
6190 1 34.795 59.037 0.000
6191 1 36.215 59.037 0.000
6192 1 36.925 60.267 0.000
6193 1 38.345 60.267 0.000
6194 1 39.055 59.037 0.000
6195 1 40.476 59.037 0.000
6196 1 41.186 60.267 0.000
6197 1 42.606 60.267 0.000
6198 1 43.316 59.037 0.000
6199 1 44.736 59.037 0.000
6200 1 45.446 60.267 0.000
6201 1 46.867 60.267 0.000
6202 1 47.577 59.037 0.000
6203 1 48.997 59.037 0.000
6204 1 49.707 60.267 0.000
6205 1 51.127 60.267 0.000
6206 1 51.837 59.037 0.000
6207 1 53.258 59.037 0.000
6208 1 53.968 60.267 0.000
6209 1 55.388 60.267 0.000
6210 1 56.098 59.037 0.000
6211 1 57.518 59.037 0.000
6212 1 58.228 60.267 0.000
6213 1 59.648 60.267 0.000
6214 1 60.358 59.037 0.000
6215 1 61.779 59.037 0.000
6216 1 62.489 60.267 0.000
6217 1 63.909 60.267 0.000
6218 1 64.619 59.037 0.000
6219 1 66.039 59.037 0.000
6220 1 66.749 60.267 0.000
6221 1 68.170 60.267 0.000
6222 1 68.880 59.037 0.000
6223 1 70.300 59.037 0.000
6224 1 71.010 60.267 0.000
6225 3 71.010 60.267 1.100
6226 1 72.430 60.267 0.000
6227 1 73.140 59.037 0.000
6228 1 74.561 59.037 0.000
6229 1 75.271 60.267 0.000
6230 1 76.691 60.267 0.000
6231 1 77.401 59.037 0.000
6232 1 78.821 59.037 0.000
6233 1 79.531 60.267 0.000
6234 1 80.951 60.267 0.000
6235 1 81.662 59.037 0.000
6236 1 83.082 59.037 0.000
6237 1 83.792 60.267 0.000
6238 1 85.212 60.267 0.000
6239 1 85.922 59.037 0.000
6240 1 87.342 59.037 0.000
6241 1 88.052 60.267 0.000
6242 1 89.473 60.267 0.000
6243 1 90.183 59.037 0.000
6244 1 91.603 59.037 0.000
6245 1 92.313 60.267 0.000
6246 1 93.733 60.267 0.000
6247 1 94.443 59.037 0.000
6248 1 95.864 59.037 0.000
6249 1 96.574 60.267 0.000
6250 1 97.994 60.267 0.000
6251 1 98.704 59.037 0.000
6252 1 100.124 59.037 0.000
6253 1 100.834 60.267 0.000
6254 1 102.254 60.267 0.000
6255 1 102.965 59.037 0.000
6256 1 104.385 59.037 0.000
6257 1 105.095 60.267 0.000
6258 1 106.515 60.267 0.000
6259 1 107.225 59.037 0.000
6260 1 108.645 59.037 0.000
6261 1 109.355 60.267 0.000
6262 1 110.776 60.267 0.000
6263 1 111.486 59.037 0.000
6264 1 112.906 59.037 0.000
6265 1 113.616 60.267 0.000
6266 1 115.036 60.267 0.000
6267 1 115.746 59.037 0.000
6268 1 117.167 59.037 0.000
6269 1 117.877 60.267 0.000
6270 1 119.297 60.267 0.000
6271 1 120.007 59.037 0.000
6272 1 121.427 59.037 0.000
6273 1 122.137 60.267 0.000
6274 1 123.557 60.267 0.000
6275 1 124.267 59.037 0.000
6276 1 125.688 59.037 0.000
6277 1 126.398 60.267 0.000
6278 1 127.818 60.267 0.000
6279 1 128.528 59.037 0.000
6280 1 129.948 59.037 0.000
6281 1 130.658 60.267 0.000
6282 1 132.079 60.267 0.000
6283 1 132.789 59.037 0.000
6284 1 134.209 59.037 0.000
6285 1 134.919 60.267 0.000
6286 1 136.339 60.267 0.000
6287 1 137.049 59.037 0.000
6288 1 138.470 59.037 0.000
6289 1 139.180 60.267 0.000
6290 1 140.600 60.267 0.000
6291 1 141.310 59.037 0.000
6292 1 142.730 59.037 0.000
6293 1 143.440 60.267 0.000
6294 1 144.860 60.267 0.000
6295 1 145.571 59.037 0.000
6296 1 146.991 59.037 0.000
6297 1 147.701 60.267 0.000
6298 1 149.121 60.267 0.000
6299 1 149.831 59.037 0.000
6300 1 151.251 59.037 0.000
6301 1 151.961 60.267 0.000
6302 1 153.382 60.267 0.000
6303 1 154.092 59.037 0.000
6304 1 155.512 59.037 0.000
6305 1 156.222 60.267 0.000
6306 1 157.642 60.267 0.000
6307 1 158.352 59.037 0.000
6308 1 159.773 59.037 0.000
6309 1 160.483 60.267 0.000
6310 1 161.903 60.267 0.000
6311 1 162.613 59.037 0.000
6312 1 164.033 59.037 0.000
6313 1 164.743 60.267 0.000
6314 1 166.163 60.267 0.000
6315 1 166.874 59.037 0.000
6316 1 168.294 59.037 0.000
6317 1 169.004 60.267 0.000
6318 1 170.424 60.267 0.000
6319 1 171.134 59.037 0.000
6320 1 172.554 59.037 0.000
6321 1 173.264 60.267 0.000
6322 1 174.685 60.267 0.000
6323 1 175.395 59.037 0.000
6324 1 176.815 59.037 0.000
6325 1 177.525 60.267 0.000
6326 1 178.945 60.267 0.000
6327 1 179.655 59.037 0.000
6328 1 181.076 59.037 0.000
6329 1 181.786 60.267 0.000
6330 1 183.206 60.267 0.000
6331 1 183.916 59.037 0.000
6332 1 185.336 59.037 0.000
6333 1 186.046 60.267 0.000
6334 1 187.466 60.267 0.000
6335 1 188.177 59.037 0.000
6336 1 189.597 59.037 0.000
6337 1 190.307 60.267 0.000
6338 1 191.727 60.267 0.000
6339 1 192.437 59.037 0.000
6340 1 193.857 59.037 0.000
6341 1 194.567 60.267 0.000
6342 1 195.988 60.267 0.000
6343 1 196.698 59.037 0.000
6344 1 198.118 59.037 0.000
6345 1 198.828 60.267 0.000
6346 1 200.248 60.267 0.000
6347 1 200.958 59.037 0.000
6348 1 202.379 59.037 0.000
6349 1 203.089 60.267 0.000
6350 1 204.509 60.267 0.000
6351 1 205.219 59.037 0.000
6352 1 206.639 59.037 0.000
6353 1 207.349 60.267 0.000
6354 1 208.769 60.267 0.000
6355 1 209.480 59.037 0.000
6356 1 210.900 59.037 0.000
6357 1 211.610 60.267 0.000
6358 1 213.030 60.267 0.000
6359 1 213.740 59.037 0.000
6360 1 215.160 59.037 0.000
6361 1 215.870 60.267 0.000
6362 1 217.291 60.267 0.000
6363 1 218.001 59.037 0.000
6364 1 219.421 59.037 0.000
6365 1 220.131 60.267 0.000
6366 1 221.551 60.267 0.000
6367 1 222.261 59.037 0.000
6368 1 223.681 59.037 0.000
6369 1 224.392 60.267 0.000
6370 1 225.812 60.267 0.000
6371 1 226.522 59.037 0.000
6372 1 227.942 59.037 0.000
6373 1 228.652 60.267 0.000
6374 1 230.072 60.267 0.000
6375 1 230.783 59.037 0.000
6376 1 232.203 59.037 0.000
6377 1 232.913 60.267 0.000
6378 1 234.333 60.267 0.000
6379 1 235.043 59.037 0.000
6380 1 236.463 59.037 0.000
6381 1 237.173 60.267 0.000
6382 1 238.594 60.267 0.000
6383 1 239.304 59.037 0.000
6384 1 240.724 59.037 0.000
6385 1 241.434 60.267 0.000
6386 1 242.854 60.267 0.000
6387 1 243.564 59.037 0.000
6388 1 244.985 59.037 0.000
6389 1 245.695 60.267 0.000
6390 1 247.115 60.267 0.000
6391 1 247.825 59.037 0.000
6392 1 249.245 59.037 0.000
6393 1 249.955 60.267 0.000
6394 1 0.000 62.726 0.000
6395 1 0.710 61.496 0.000
6396 1 2.130 61.496 0.000
6397 1 2.840 62.726 0.000
6398 1 4.261 62.726 0.000
6399 1 4.971 61.496 0.000
6400 1 6.391 61.496 0.000
6401 1 7.101 62.726 0.000
6402 1 8.521 62.726 0.000
6403 1 9.231 61.496 0.000
6404 1 10.652 61.496 0.000
6405 1 11.362 62.726 0.000
6406 1 12.782 62.726 0.000
6407 1 13.492 61.496 0.000
6408 1 14.912 61.496 0.000
6409 1 15.622 62.726 0.000
6410 1 17.042 62.726 0.000
6411 1 17.753 61.496 0.000
6412 1 19.173 61.496 0.000
6413 1 19.883 62.726 0.000
6414 1 21.303 62.726 0.000
6415 1 22.013 61.496 0.000
6416 1 23.433 61.496 0.000
6417 1 24.143 62.726 0.000
6418 1 25.564 62.726 0.000
6419 1 26.274 61.496 0.000
6420 1 27.694 61.496 0.000
6421 1 28.404 62.726 0.000
6422 1 29.824 62.726 0.000
6423 1 30.534 61.496 0.000
6424 1 31.954 61.496 0.000
6425 1 32.665 62.726 0.000
6426 1 34.085 62.726 0.000
6427 1 34.795 61.496 0.000
6428 1 36.215 61.496 0.000
6429 1 36.925 62.726 0.000
6430 1 38.345 62.726 0.000
6431 1 39.055 61.496 0.000
6432 1 40.476 61.496 0.000
6433 1 41.186 62.726 0.000
6434 1 42.606 62.726 0.000
6435 1 43.316 61.496 0.000
6436 1 44.736 61.496 0.000
6437 1 45.446 62.726 0.000
6438 1 46.867 62.726 0.000
6439 1 47.577 61.496 0.000
6440 1 48.997 61.496 0.000
6441 1 49.707 62.726 0.000
6442 1 51.127 62.726 0.000
6443 1 51.837 61.496 0.000
6444 1 53.258 61.496 0.000
6445 1 53.968 62.726 0.000
6446 1 55.388 62.726 0.000
6447 1 56.098 61.496 0.000
6448 1 57.518 61.496 0.000
6449 1 58.228 62.726 0.000
6450 2 58.228 62.726 1.500
6451 3 59.328 62.726 1.633
6452 3 57.128 62.726 1.633
6453 2 58.228 62.726 3.040
6454 3 59.328 62.726 3.173
6455 3 57.678 63.679 3.173
6456 3 57.678 61.773 3.173
6457 1 59.648 62.726 0.000
6458 1 60.358 61.496 0.000
6459 1 61.779 61.496 0.000
6460 1 62.489 62.726 0.000
6461 1 63.909 62.726 0.000
6462 1 64.619 61.496 0.000
6463 1 66.039 61.496 0.000
6464 1 66.749 62.726 0.000
6465 1 68.170 62.726 0.000
6466 1 68.880 61.496 0.000
6467 1 70.300 61.496 0.000
6468 1 71.010 62.726 0.000
6469 3 71.010 62.726 -1.100
6470 1 72.430 62.726 0.000
6471 1 73.140 61.496 0.000
6472 1 74.561 61.496 0.000
6473 1 75.271 62.726 0.000
6474 1 76.691 62.726 0.000
6475 1 77.401 61.496 0.000
6476 1 78.821 61.496 0.000
6477 1 79.531 62.726 0.000
6478 1 80.951 62.726 0.000
6479 1 81.662 61.496 0.000
6480 1 83.082 61.496 0.000
6481 1 83.792 62.726 0.000
6482 1 85.212 62.726 0.000
6483 1 85.922 61.496 0.000
6484 1 87.342 61.496 0.000
6485 1 88.052 62.726 0.000
6486 1 89.473 62.726 0.000
6487 1 90.183 61.496 0.000
6488 1 91.603 61.496 0.000
6489 1 92.313 62.726 0.000
6490 1 93.733 62.726 0.000
6491 1 94.443 61.496 0.000
6492 1 95.864 61.496 0.000
6493 1 96.574 62.726 0.000
6494 1 97.994 62.726 0.000
6495 1 98.704 61.496 0.000
6496 1 100.124 61.496 0.000
6497 3 100.124 61.496 1.100
6498 1 100.834 62.726 0.000
6499 1 102.254 62.726 0.000
6500 1 102.965 61.496 0.000
6501 1 104.385 61.496 0.000
6502 1 105.095 62.726 0.000
6503 1 106.515 62.726 0.000
6504 3 106.515 62.726 1.100
6505 1 107.225 61.496 0.000
6506 1 108.645 61.496 0.000
6507 1 109.355 62.726 0.000
6508 1 110.776 62.726 0.000
6509 1 111.486 61.496 0.000
6510 1 112.906 61.496 0.000
6511 1 113.616 62.726 0.000
6512 3 113.616 62.726 1.100
6513 1 115.036 62.726 0.000
6514 1 115.746 61.496 0.000
6515 1 117.167 61.496 0.000
6516 1 117.877 62.726 0.000
6517 1 119.297 62.726 0.000
6518 1 120.007 61.496 0.000
6519 1 121.427 61.496 0.000
6520 1 122.137 62.726 0.000
6521 1 123.557 62.726 0.000
6522 1 124.267 61.496 0.000
6523 1 125.688 61.496 0.000
6524 1 126.398 62.726 0.000
6525 1 127.818 62.726 0.000
6526 1 128.528 61.496 0.000
6527 1 129.948 61.496 0.000
6528 1 130.658 62.726 0.000
6529 1 132.079 62.726 0.000
6530 1 132.789 61.496 0.000
6531 1 134.209 61.496 0.000
6532 1 134.919 62.726 0.000
6533 1 136.339 62.726 0.000
6534 1 137.049 61.496 0.000
6535 1 138.470 61.496 0.000
6536 1 139.180 62.726 0.000
6537 1 140.600 62.726 0.000
6538 1 141.310 61.496 0.000
6539 3 141.310 61.496 -1.100
6540 1 142.730 61.496 0.000
6541 1 143.440 62.726 0.000
6542 1 144.860 62.726 0.000
6543 1 145.571 61.496 0.000
6544 1 146.991 61.496 0.000
6545 1 147.701 62.726 0.000
6546 1 149.121 62.726 0.000
6547 1 149.831 61.496 0.000
6548 1 151.251 61.496 0.000
6549 3 151.251 61.496 -1.100
6550 1 151.961 62.726 0.000
6551 1 153.382 62.726 0.000
6552 1 154.092 61.496 0.000
6553 1 155.512 61.496 0.000
6554 1 156.222 62.726 0.000
6555 1 157.642 62.726 0.000
6556 1 158.352 61.496 0.000
6557 1 159.773 61.496 0.000
6558 1 160.483 62.726 0.000
6559 1 161.903 62.726 0.000
6560 1 162.613 61.496 0.000
6561 1 164.033 61.496 0.000
6562 1 164.743 62.726 0.000
6563 1 166.163 62.726 0.000
6564 1 166.874 61.496 0.000
6565 1 168.294 61.496 0.000
6566 1 169.004 62.726 0.000
6567 1 170.424 62.726 0.000
6568 1 171.134 61.496 0.000
6569 1 172.554 61.496 0.000
6570 1 173.264 62.726 0.000
6571 1 174.685 62.726 0.000
6572 1 175.395 61.496 0.000
6573 1 176.815 61.496 0.000
6574 1 177.525 62.726 0.000
6575 1 178.945 62.726 0.000
6576 1 179.655 61.496 0.000
6577 1 181.076 61.496 0.000
6578 1 181.786 62.726 0.000
6579 1 183.206 62.726 0.000
6580 1 183.916 61.496 0.000
6581 1 185.336 61.496 0.000
6582 1 186.046 62.726 0.000
6583 1 187.466 62.726 0.000
6584 1 188.177 61.496 0.000
6585 1 189.597 61.496 0.000
6586 1 190.307 62.726 0.000
6587 3 190.307 62.726 -1.100
6588 1 191.727 62.726 0.000
6589 1 192.437 61.496 0.000
6590 1 193.857 61.496 0.000
6591 1 194.567 62.726 0.000
6592 1 195.988 62.726 0.000
6593 1 196.698 61.496 0.000
6594 3 196.698 61.496 1.100
6595 1 198.118 61.496 0.000
6596 1 198.828 62.726 0.000
6597 1 200.248 62.726 0.000
6598 1 200.958 61.496 0.000
6599 1 202.379 61.496 0.000
6600 1 203.089 62.726 0.000
6601 1 204.509 62.726 0.000
6602 1 205.219 61.496 0.000
6603 1 206.639 61.496 0.000
6604 2 206.639 61.496 1.500
6605 3 207.739 61.496 1.633
6606 3 205.539 61.496 1.633
6607 2 206.639 61.496 3.040
6608 3 207.739 61.496 3.173
6609 3 206.089 62.449 3.173
6610 3 206.089 60.543 3.173
6611 1 207.349 62.726 0.000
6612 1 208.769 62.726 0.000
6613 1 209.480 61.496 0.000
6614 1 210.900 61.496 0.000
6615 1 211.610 62.726 0.000
6616 1 213.030 62.726 0.000
6617 1 213.740 61.496 0.000
6618 1 215.160 61.496 0.000
6619 1 215.870 62.726 0.000
6620 1 217.291 62.726 0.000
6621 1 218.001 61.496 0.000
6622 1 219.421 61.496 0.000
6623 1 220.131 62.726 0.000
6624 1 221.551 62.726 0.000
6625 1 222.261 61.496 0.000
6626 1 223.681 61.496 0.000
6627 1 224.392 62.726 0.000
6628 1 225.812 62.726 0.000
6629 1 226.522 61.496 0.000
6630 1 227.942 61.496 0.000
6631 1 228.652 62.726 0.000
6632 1 230.072 62.726 0.000
6633 1 230.783 61.496 0.000
6634 1 232.203 61.496 0.000
6635 1 232.913 62.726 0.000
6636 1 234.333 62.726 0.000
6637 1 235.043 61.496 0.000
6638 1 236.463 61.496 0.000
6639 1 237.173 62.726 0.000
6640 1 238.594 62.726 0.000
6641 1 239.304 61.496 0.000
6642 1 240.724 61.496 0.000
6643 1 241.434 62.726 0.000
6644 1 242.854 62.726 0.000
6645 1 243.564 61.496 0.000
6646 1 244.985 61.496 0.000
6647 1 245.695 62.726 0.000
6648 3 245.695 62.726 1.100
6649 1 247.115 62.726 0.000
6650 1 247.825 61.496 0.000
6651 1 249.245 61.496 0.000
6652 1 249.955 62.726 0.000
6653 1 0.000 65.186 0.000
6654 1 0.710 63.956 0.000
6655 1 2.130 63.956 0.000
6656 1 2.840 65.186 0.000
6657 1 4.261 65.186 0.000
6658 1 4.971 63.956 0.000
6659 1 6.391 63.956 0.000
6660 1 7.101 65.186 0.000
6661 1 8.521 65.186 0.000
6662 1 9.231 63.956 0.000
6663 1 10.652 63.956 0.000
6664 1 11.362 65.186 0.000
6665 1 12.782 65.186 0.000
6666 1 13.492 63.956 0.000
6667 1 14.912 63.956 0.000
6668 1 15.622 65.186 0.000
6669 1 17.042 65.186 0.000
6670 1 17.753 63.956 0.000
6671 1 19.173 63.956 0.000
6672 1 19.883 65.186 0.000
6673 1 21.303 65.186 0.000
6674 1 22.013 63.956 0.000
6675 1 23.433 63.956 0.000
6676 1 24.143 65.186 0.000
6677 1 25.564 65.186 0.000
6678 1 26.274 63.956 0.000
6679 1 27.694 63.956 0.000
6680 1 28.404 65.186 0.000
6681 1 29.824 65.186 0.000
6682 1 30.534 63.956 0.000
6683 1 31.954 63.956 0.000
6684 1 32.665 65.186 0.000
6685 1 34.085 65.186 0.000
6686 1 34.795 63.956 0.000
6687 1 36.215 63.956 0.000
6688 1 36.925 65.186 0.000
6689 1 38.345 65.186 0.000
6690 1 39.055 63.956 0.000
6691 1 40.476 63.956 0.000
6692 1 41.186 65.186 0.000
6693 1 42.606 65.186 0.000
6694 1 43.316 63.956 0.000
6695 1 44.736 63.956 0.000
6696 1 45.446 65.186 0.000
6697 1 46.867 65.186 0.000
6698 1 47.577 63.956 0.000
6699 1 48.997 63.956 0.000
6700 3 48.997 63.956 1.100
6701 1 49.707 65.186 0.000
6702 1 51.127 65.186 0.000
6703 1 51.837 63.956 0.000
6704 1 53.258 63.956 0.000
6705 1 53.968 65.186 0.000
6706 1 55.388 65.186 0.000
6707 1 56.098 63.956 0.000
6708 1 57.518 63.956 0.000
6709 1 58.228 65.186 0.000
6710 1 59.648 65.186 0.000
6711 1 60.358 63.956 0.000
6712 1 61.779 63.956 0.000
6713 1 62.489 65.186 0.000
6714 1 63.909 65.186 0.000
6715 1 64.619 63.956 0.000
6716 1 66.039 63.956 0.000
6717 1 66.749 65.186 0.000
6718 1 68.170 65.186 0.000
6719 1 68.880 63.956 0.000
6720 1 70.300 63.956 0.000
6721 1 71.010 65.186 0.000
6722 1 72.430 65.186 0.000
6723 1 73.140 63.956 0.000
6724 1 74.561 63.956 0.000
6725 3 74.561 63.956 -1.100
6726 1 75.271 65.186 0.000
6727 1 76.691 65.186 0.000
6728 1 77.401 63.956 0.000
6729 1 78.821 63.956 0.000
6730 1 79.531 65.186 0.000
6731 1 80.951 65.186 0.000
6732 1 81.662 63.956 0.000
6733 1 83.082 63.956 0.000
6734 1 83.792 65.186 0.000
6735 1 85.212 65.186 0.000
6736 1 85.922 63.956 0.000
6737 1 87.342 63.956 0.000
6738 3 87.342 63.956 1.100
6739 1 88.052 65.186 0.000
6740 1 89.473 65.186 0.000
6741 1 90.183 63.956 0.000
6742 1 91.603 63.956 0.000
6743 1 92.313 65.186 0.000
6744 1 93.733 65.186 0.000
6745 1 94.443 63.956 0.000
6746 1 95.864 63.956 0.000
6747 1 96.574 65.186 0.000
6748 1 97.994 65.186 0.000
6749 1 98.704 63.956 0.000
6750 1 100.124 63.956 0.000
6751 1 100.834 65.186 0.000
6752 1 102.254 65.186 0.000
6753 3 102.254 65.186 1.100
6754 1 102.965 63.956 0.000
6755 1 104.385 63.956 0.000
6756 1 105.095 65.186 0.000
6757 1 106.515 65.186 0.000
6758 1 107.225 63.956 0.000
6759 1 108.645 63.956 0.000
6760 1 109.355 65.186 0.000
6761 1 110.776 65.186 0.000
6762 1 111.486 63.956 0.000
6763 1 112.906 63.956 0.000
6764 1 113.616 65.186 0.000
6765 1 115.036 65.186 0.000
6766 1 115.746 63.956 0.000
6767 1 117.167 63.956 0.000
6768 1 117.877 65.186 0.000
6769 1 119.297 65.186 0.000
6770 1 120.007 63.956 0.000
6771 1 121.427 63.956 0.000
6772 1 122.137 65.186 0.000
6773 1 123.557 65.186 0.000
6774 1 124.267 63.956 0.000
6775 1 125.688 63.956 0.000
6776 3 125.688 63.956 1.100
6777 1 126.398 65.186 0.000
6778 1 127.818 65.186 0.000
6779 1 128.528 63.956 0.000
6780 1 129.948 63.956 0.000
6781 1 130.658 65.186 0.000
6782 1 132.079 65.186 0.000
6783 1 132.789 63.956 0.000
6784 1 134.209 63.956 0.000
6785 1 134.919 65.186 0.000
6786 1 136.339 65.186 0.000
6787 1 137.049 63.956 0.000
6788 1 138.470 63.956 0.000
6789 1 139.180 65.186 0.000
6790 1 140.600 65.186 0.000
6791 1 141.310 63.956 0.000
6792 1 142.730 63.956 0.000
6793 1 143.440 65.186 0.000
6794 1 144.860 65.186 0.000
6795 1 145.571 63.956 0.000
6796 1 146.991 63.956 0.000
6797 1 147.701 65.186 0.000
6798 1 149.121 65.186 0.000
6799 1 149.831 63.956 0.000
6800 1 151.251 63.956 0.000
6801 1 151.961 65.186 0.000
6802 3 151.961 65.186 -1.100
6803 1 153.382 65.186 0.000
6804 1 154.092 63.956 0.000
6805 1 155.512 63.956 0.000
6806 1 156.222 65.186 0.000
6807 1 157.642 65.186 0.000
6808 1 158.352 63.956 0.000
6809 1 159.773 63.956 0.000
6810 1 160.483 65.186 0.000
6811 1 161.903 65.186 0.000
6812 1 162.613 63.956 0.000
6813 1 164.033 63.956 0.000
6814 1 164.743 65.186 0.000
6815 1 166.163 65.186 0.000
6816 1 166.874 63.956 0.000
6817 1 168.294 63.956 0.000
6818 1 169.004 65.186 0.000
6819 1 170.424 65.186 0.000
6820 1 171.134 63.956 0.000
6821 1 172.554 63.956 0.000
6822 1 173.264 65.186 0.000
6823 1 174.685 65.186 0.000
6824 1 175.395 63.956 0.000
6825 1 176.815 63.956 0.000
6826 1 177.525 65.186 0.000
6827 1 178.945 65.186 0.000
6828 1 179.655 63.956 0.000
6829 1 181.076 63.956 0.000
6830 1 181.786 65.186 0.000
6831 1 183.206 65.186 0.000
6832 1 183.916 63.956 0.000
6833 1 185.336 63.956 0.000
6834 1 186.046 65.186 0.000
6835 1 187.466 65.186 0.000
6836 1 188.177 63.956 0.000
6837 1 189.597 63.956 0.000
6838 1 190.307 65.186 0.000
6839 1 191.727 65.186 0.000
6840 1 192.437 63.956 0.000
6841 1 193.857 63.956 0.000
6842 3 193.857 63.956 -1.100
6843 1 194.567 65.186 0.000
6844 1 195.988 65.186 0.000
6845 1 196.698 63.956 0.000
6846 1 198.118 63.956 0.000
6847 1 198.828 65.186 0.000
6848 3 198.828 65.186 -1.100
6849 1 200.248 65.186 0.000
6850 1 200.958 63.956 0.000
6851 1 202.379 63.956 0.000
6852 1 203.089 65.186 0.000
6853 1 204.509 65.186 0.000
6854 1 205.219 63.956 0.000
6855 1 206.639 63.956 0.000
6856 1 207.349 65.186 0.000
6857 1 208.769 65.186 0.000
6858 1 209.480 63.956 0.000
6859 1 210.900 63.956 0.000
6860 1 211.610 65.186 0.000
6861 1 213.030 65.186 0.000
6862 1 213.740 63.956 0.000
6863 1 215.160 63.956 0.000
6864 1 215.870 65.186 0.000
6865 1 217.291 65.186 0.000
6866 1 218.001 63.956 0.000
6867 1 219.421 63.956 0.000
6868 1 220.131 65.186 0.000
6869 1 221.551 65.186 0.000
6870 1 222.261 63.956 0.000
6871 1 223.681 63.956 0.000
6872 1 224.392 65.186 0.000
6873 1 225.812 65.186 0.000
6874 1 226.522 63.956 0.000
6875 1 227.942 63.956 0.000
6876 1 228.652 65.186 0.000
6877 1 230.072 65.186 0.000
6878 1 230.783 63.956 0.000
6879 1 232.203 63.956 0.000
6880 1 232.913 65.186 0.000
6881 1 234.333 65.186 0.000
6882 1 235.043 63.956 0.000
6883 1 236.463 63.956 0.000
6884 1 237.173 65.186 0.000
6885 1 238.594 65.186 0.000
6886 1 239.304 63.956 0.000
6887 1 240.724 63.956 0.000
6888 1 241.434 65.186 0.000
6889 1 242.854 65.186 0.000
6890 1 243.564 63.956 0.000
6891 1 244.985 63.956 0.000
6892 1 245.695 65.186 0.000
6893 1 247.115 65.186 0.000
6894 1 247.825 63.956 0.000
6895 1 249.245 63.956 0.000
6896 1 249.955 65.186 0.000
6897 1 0.000 67.646 0.000
6898 1 0.710 66.416 0.000
6899 1 2.130 66.416 0.000
6900 1 2.840 67.646 0.000
6901 1 4.261 67.646 0.000
6902 1 4.971 66.416 0.000
6903 1 6.391 66.416 0.000
6904 1 7.101 67.646 0.000
6905 1 8.521 67.646 0.000
6906 1 9.231 66.416 0.000
6907 1 10.652 66.416 0.000
6908 1 11.362 67.646 0.000
6909 1 12.782 67.646 0.000
6910 1 13.492 66.416 0.000
6911 1 14.912 66.416 0.000
6912 2 14.912 66.416 1.500
6913 3 16.012 66.416 1.633
6914 3 14.362 67.369 1.633
6915 3 14.362 65.463 1.633
6916 1 15.622 67.646 0.000
6917 1 17.042 67.646 0.000
6918 1 17.753 66.416 0.000
6919 3 17.753 66.416 1.100
6920 1 19.173 66.416 0.000
6921 1 19.883 67.646 0.000
6922 1 21.303 67.646 0.000
6923 1 22.013 66.416 0.000
6924 1 23.433 66.416 0.000
6925 1 24.143 67.646 0.000
6926 2 24.143 67.646 -1.500
6927 3 25.243 67.646 -1.633
6928 3 23.593 68.599 -1.633
6929 3 23.593 66.693 -1.633
6930 1 25.564 67.646 0.000
6931 1 26.274 66.416 0.000
6932 1 27.694 66.416 0.000
6933 1 28.404 67.646 0.000
6934 1 29.824 67.646 0.000
6935 1 30.534 66.416 0.000
6936 1 31.954 66.416 0.000
6937 1 32.665 67.646 0.000
6938 1 34.085 67.646 0.000
6939 1 34.795 66.416 0.000
6940 1 36.215 66.416 0.000
6941 1 36.925 67.646 0.000
6942 1 38.345 67.646 0.000
6943 1 39.055 66.416 0.000
6944 1 40.476 66.416 0.000
6945 1 41.186 67.646 0.000
6946 1 42.606 67.646 0.000
6947 1 43.316 66.416 0.000
6948 1 44.736 66.416 0.000
6949 1 45.446 67.646 0.000
6950 1 46.867 67.646 0.000
6951 1 47.577 66.416 0.000
6952 1 48.997 66.416 0.000
6953 1 49.707 67.646 0.000
6954 1 51.127 67.646 0.000
6955 1 51.837 66.416 0.000
6956 1 53.258 66.416 0.000
6957 1 53.968 67.646 0.000
6958 1 55.388 67.646 0.000
6959 1 56.098 66.416 0.000
6960 1 57.518 66.416 0.000
6961 1 58.228 67.646 0.000
6962 1 59.648 67.646 0.000
6963 1 60.358 66.416 0.000
6964 1 61.779 66.416 0.000
6965 1 62.489 67.646 0.000
6966 1 63.909 67.646 0.000
6967 1 64.619 66.416 0.000
6968 1 66.039 66.416 0.000
6969 1 66.749 67.646 0.000
6970 1 68.170 67.646 0.000
6971 1 68.880 66.416 0.000
6972 1 70.300 66.416 0.000
6973 1 71.010 67.646 0.000
6974 1 72.430 67.646 0.000
6975 1 73.140 66.416 0.000
6976 1 74.561 66.416 0.000
6977 1 75.271 67.646 0.000
6978 1 76.691 67.646 0.000
6979 1 77.401 66.416 0.000
6980 1 78.821 66.416 0.000
6981 1 79.531 67.646 0.000
6982 1 80.951 67.646 0.000
6983 1 81.662 66.416 0.000
6984 1 83.082 66.416 0.000
6985 1 83.792 67.646 0.000
6986 1 85.212 67.646 0.000
6987 3 85.212 67.646 -1.100
6988 1 85.922 66.416 0.000
6989 1 87.342 66.416 0.000
6990 1 88.052 67.646 0.000
6991 1 89.473 67.646 0.000
6992 1 90.183 66.416 0.000
6993 1 91.603 66.416 0.000
6994 1 92.313 67.646 0.000
6995 1 93.733 67.646 0.000
6996 1 94.443 66.416 0.000
6997 1 95.864 66.416 0.000
6998 1 96.574 67.646 0.000
6999 1 97.994 67.646 0.000
7000 1 98.704 66.416 0.000
7001 1 100.124 66.416 0.000
7002 1 100.834 67.646 0.000
7003 1 102.254 67.646 0.000
7004 1 102.965 66.416 0.000
7005 1 104.385 66.416 0.000
7006 1 105.095 67.646 0.000
7007 1 106.515 67.646 0.000
7008 1 107.225 66.416 0.000
7009 1 108.645 66.416 0.000
7010 1 109.355 67.646 0.000
7011 1 110.776 67.646 0.000
7012 1 111.486 66.416 0.000
7013 1 112.906 66.416 0.000
7014 1 113.616 67.646 0.000
7015 1 115.036 67.646 0.000
7016 1 115.746 66.416 0.000
7017 1 117.167 66.416 0.000
7018 1 117.877 67.646 0.000
7019 1 119.297 67.646 0.000
7020 1 120.007 66.416 0.000
7021 1 121.427 66.416 0.000
7022 1 122.137 67.646 0.000
7023 1 123.557 67.646 0.000
7024 1 124.267 66.416 0.000
7025 1 125.688 66.416 0.000
7026 1 126.398 67.646 0.000
7027 1 127.818 67.646 0.000
7028 1 128.528 66.416 0.000
7029 1 129.948 66.416 0.000
7030 1 130.658 67.646 0.000
7031 1 132.079 67.646 0.000
7032 1 132.789 66.416 0.000
7033 1 134.209 66.416 0.000
7034 1 134.919 67.646 0.000
7035 1 136.339 67.646 0.000
7036 1 137.049 66.416 0.000
7037 1 138.470 66.416 0.000
7038 1 139.180 67.646 0.000
7039 3 139.180 67.646 1.100
7040 1 140.600 67.646 0.000
7041 1 141.310 66.416 0.000
7042 1 142.730 66.416 0.000
7043 1 143.440 67.646 0.000
7044 1 144.860 67.646 0.000
7045 1 145.571 66.416 0.000
7046 1 146.991 66.416 0.000
7047 1 147.701 67.646 0.000
7048 1 149.121 67.646 0.000
7049 1 149.831 66.416 0.000
7050 1 151.251 66.416 0.000
7051 1 151.961 67.646 0.000
7052 1 153.382 67.646 0.000
7053 1 154.092 66.416 0.000
7054 1 155.512 66.416 0.000
7055 1 156.222 67.646 0.000
7056 1 157.642 67.646 0.000
7057 1 158.352 66.416 0.000
7058 1 159.773 66.416 0.000
7059 1 160.483 67.646 0.000
7060 1 161.903 67.646 0.000
7061 1 162.613 66.416 0.000
7062 1 164.033 66.416 0.000
7063 1 164.743 67.646 0.000
7064 1 166.163 67.646 0.000
7065 1 166.874 66.416 0.000
7066 1 168.294 66.416 0.000
7067 1 169.004 67.646 0.000
7068 1 170.424 67.646 0.000
7069 1 171.134 66.416 0.000
7070 1 172.554 66.416 0.000
7071 1 173.264 67.646 0.000
7072 1 174.685 67.646 0.000
7073 1 175.395 66.416 0.000
7074 1 176.815 66.416 0.000
7075 1 177.525 67.646 0.000
7076 1 178.945 67.646 0.000
7077 1 179.655 66.416 0.000
7078 1 181.076 66.416 0.000
7079 1 181.786 67.646 0.000
7080 1 183.206 67.646 0.000
7081 1 183.916 66.416 0.000
7082 1 185.336 66.416 0.000
7083 3 185.336 66.416 -1.100
7084 1 186.046 67.646 0.000
7085 1 187.466 67.646 0.000
7086 1 188.177 66.416 0.000
7087 1 189.597 66.416 0.000
7088 1 190.307 67.646 0.000
7089 1 191.727 67.646 0.000
7090 1 192.437 66.416 0.000
7091 1 193.857 66.416 0.000
7092 1 194.567 67.646 0.000
7093 1 195.988 67.646 0.000
7094 1 196.698 66.416 0.000
7095 1 198.118 66.416 0.000
7096 2 198.118 66.416 -1.500
7097 3 199.218 66.416 -1.633
7098 3 197.018 66.416 -1.633
7099 2 198.118 66.416 -3.040
7100 3 199.218 66.416 -3.173
7101 3 197.568 67.369 -3.173
7102 3 197.568 65.463 -3.173
7103 1 198.828 67.646 0.000
7104 1 200.248 67.646 0.000
7105 1 200.958 66.416 0.000
7106 1 202.379 66.416 0.000
7107 1 203.089 67.646 0.000
7108 1 204.509 67.646 0.000
7109 1 205.219 66.416 0.000
7110 1 206.639 66.416 0.000
7111 1 207.349 67.646 0.000
7112 1 208.769 67.646 0.000
7113 1 209.480 66.416 0.000
7114 1 210.900 66.416 0.000
7115 1 211.610 67.646 0.000
7116 1 213.030 67.646 0.000
7117 1 213.740 66.416 0.000
7118 1 215.160 66.416 0.000
7119 1 215.870 67.646 0.000
7120 1 217.291 67.646 0.000
7121 1 218.001 66.416 0.000
7122 1 219.421 66.416 0.000
7123 1 220.131 67.646 0.000
7124 1 221.551 67.646 0.000
7125 1 222.261 66.416 0.000
7126 1 223.681 66.416 0.000
7127 1 224.392 67.646 0.000
7128 1 225.812 67.646 0.000
7129 1 226.522 66.416 0.000
7130 1 227.942 66.416 0.000
7131 1 228.652 67.646 0.000
7132 1 230.072 67.646 0.000
7133 1 230.783 66.416 0.000
7134 1 232.203 66.416 0.000
7135 1 232.913 67.646 0.000
7136 1 234.333 67.646 0.000
7137 1 235.043 66.416 0.000
7138 1 236.463 66.416 0.000
7139 1 237.173 67.646 0.000
7140 1 238.594 67.646 0.000
7141 1 239.304 66.416 0.000
7142 1 240.724 66.416 0.000
7143 1 241.434 67.646 0.000
7144 1 242.854 67.646 0.000
7145 1 243.564 66.416 0.000
7146 1 244.985 66.416 0.000
7147 1 245.695 67.646 0.000
7148 3 245.695 67.646 -1.100
7149 1 247.115 67.646 0.000
7150 1 247.825 66.416 0.000
7151 1 249.245 66.416 0.000
7152 1 249.955 67.646 0.000
7153 1 0.000 70.106 0.000
7154 1 0.710 68.876 0.000
7155 1 2.130 68.876 0.000
7156 1 2.840 70.106 0.000
7157 1 4.261 70.106 0.000
7158 1 4.971 68.876 0.000
7159 1 6.391 68.876 0.000
7160 1 7.101 70.106 0.000
7161 1 8.521 70.106 0.000
7162 1 9.231 68.876 0.000
7163 1 10.652 68.876 0.000
7164 1 11.362 70.106 0.000
7165 1 12.782 70.106 0.000
7166 1 13.492 68.876 0.000
7167 1 14.912 68.876 0.000
7168 1 15.622 70.106 0.000
7169 1 17.042 70.106 0.000
7170 1 17.753 68.876 0.000
7171 1 19.173 68.876 0.000
7172 1 19.883 70.106 0.000
7173 1 21.303 70.106 0.000
7174 1 22.013 68.876 0.000
7175 1 23.433 68.876 0.000
7176 1 24.143 70.106 0.000
7177 1 25.564 70.106 0.000
7178 1 26.274 68.876 0.000
7179 1 27.694 68.876 0.000
7180 3 27.694 68.876 -1.100
7181 1 28.404 70.106 0.000
7182 1 29.824 70.106 0.000
7183 1 30.534 68.876 0.000
7184 1 31.954 68.876 0.000
7185 1 32.665 70.106 0.000
7186 1 34.085 70.106 0.000
7187 1 34.795 68.876 0.000
7188 1 36.215 68.876 0.000
7189 1 36.925 70.106 0.000
7190 1 38.345 70.106 0.000
7191 1 39.055 68.876 0.000
7192 1 40.476 68.876 0.000
7193 1 41.186 70.106 0.000
7194 1 42.606 70.106 0.000
7195 1 43.316 68.876 0.000
7196 1 44.736 68.876 0.000
7197 1 45.446 70.106 0.000
7198 1 46.867 70.106 0.000
7199 1 47.577 68.876 0.000
7200 1 48.997 68.876 0.000
7201 1 49.707 70.106 0.000
7202 1 51.127 70.106 0.000
7203 1 51.837 68.876 0.000
7204 1 53.258 68.876 0.000
7205 1 53.968 70.106 0.000
7206 1 55.388 70.106 0.000
7207 1 56.098 68.876 0.000
7208 1 57.518 68.876 0.000
7209 1 58.228 70.106 0.000
7210 1 59.648 70.106 0.000
7211 1 60.358 68.876 0.000
7212 1 61.779 68.876 0.000
7213 1 62.489 70.106 0.000
7214 1 63.909 70.106 0.000
7215 1 64.619 68.876 0.000
7216 1 66.039 68.876 0.000
7217 1 66.749 70.106 0.000
7218 1 68.170 70.106 0.000
7219 1 68.880 68.876 0.000
7220 1 70.300 68.876 0.000
7221 1 71.010 70.106 0.000
7222 1 72.430 70.106 0.000
7223 1 73.140 68.876 0.000
7224 1 74.561 68.876 0.000
7225 1 75.271 70.106 0.000
7226 1 76.691 70.106 0.000
7227 1 77.401 68.876 0.000
7228 1 78.821 68.876 0.000
7229 1 79.531 70.106 0.000
7230 1 80.951 70.106 0.000
7231 3 80.951 70.106 1.100
7232 1 81.662 68.876 0.000
7233 1 83.082 68.876 0.000
7234 1 83.792 70.106 0.000
7235 1 85.212 70.106 0.000
7236 1 85.922 68.876 0.000
7237 1 87.342 68.876 0.000
7238 1 88.052 70.106 0.000
7239 1 89.473 70.106 0.000
7240 1 90.183 68.876 0.000
7241 1 91.603 68.876 0.000
7242 1 92.313 70.106 0.000
7243 1 93.733 70.106 0.000
7244 1 94.443 68.876 0.000
7245 1 95.864 68.876 0.000
7246 1 96.574 70.106 0.000
7247 1 97.994 70.106 0.000
7248 1 98.704 68.876 0.000
7249 1 100.124 68.876 0.000
7250 1 100.834 70.106 0.000
7251 1 102.254 70.106 0.000
7252 1 102.965 68.876 0.000
7253 1 104.385 68.876 0.000
7254 1 105.095 70.106 0.000
7255 1 106.515 70.106 0.000
7256 1 107.225 68.876 0.000
7257 1 108.645 68.876 0.000
7258 1 109.355 70.106 0.000
7259 1 110.776 70.106 0.000
7260 1 111.486 68.876 0.000
7261 1 112.906 68.876 0.000
7262 1 113.616 70.106 0.000
7263 1 115.036 70.106 0.000
7264 1 115.746 68.876 0.000
7265 1 117.167 68.876 0.000
7266 1 117.877 70.106 0.000
7267 1 119.297 70.106 0.000
7268 1 120.007 68.876 0.000
7269 1 121.427 68.876 0.000
7270 1 122.137 70.106 0.000
7271 1 123.557 70.106 0.000
7272 1 124.267 68.876 0.000
7273 1 125.688 68.876 0.000
7274 1 126.398 70.106 0.000
7275 1 127.818 70.106 0.000
7276 1 128.528 68.876 0.000
7277 1 129.948 68.876 0.000
7278 1 130.658 70.106 0.000
7279 1 132.079 70.106 0.000
7280 1 132.789 68.876 0.000
7281 1 134.209 68.876 0.000
7282 1 134.919 70.106 0.000
7283 1 136.339 70.106 0.000
7284 1 137.049 68.876 0.000
7285 1 138.470 68.876 0.000
7286 1 139.180 70.106 0.000
7287 1 140.600 70.106 0.000
7288 1 141.310 68.876 0.000
7289 1 142.730 68.876 0.000
7290 1 143.440 70.106 0.000
7291 1 144.860 70.106 0.000
7292 1 145.571 68.876 0.000
7293 1 146.991 68.876 0.000
7294 1 147.701 70.106 0.000
7295 1 149.121 70.106 0.000
7296 1 149.831 68.876 0.000
7297 1 151.251 68.876 0.000
7298 1 151.961 70.106 0.000
7299 1 153.382 70.106 0.000
7300 1 154.092 68.876 0.000
7301 1 155.512 68.876 0.000
7302 1 156.222 70.106 0.000
7303 1 157.642 70.106 0.000
7304 1 158.352 68.876 0.000
7305 1 159.773 68.876 0.000
7306 1 160.483 70.106 0.000
7307 1 161.903 70.106 0.000
7308 1 162.613 68.876 0.000
7309 1 164.033 68.876 0.000
7310 1 164.743 70.106 0.000
7311 1 166.163 70.106 0.000
7312 1 166.874 68.876 0.000
7313 1 168.294 68.876 0.000
7314 1 169.004 70.106 0.000
7315 1 170.424 70.106 0.000
7316 1 171.134 68.876 0.000
7317 1 172.554 68.876 0.000
7318 1 173.264 70.106 0.000
7319 1 174.685 70.106 0.000
7320 1 175.395 68.876 0.000
7321 1 176.815 68.876 0.000
7322 1 177.525 70.106 0.000
7323 1 178.945 70.106 0.000
7324 3 178.945 70.106 1.100
7325 1 179.655 68.876 0.000
7326 1 181.076 68.876 0.000
7327 1 181.786 70.106 0.000
7328 1 183.206 70.106 0.000
7329 1 183.916 68.876 0.000
7330 1 185.336 68.876 0.000
7331 1 186.046 70.106 0.000
7332 1 187.466 70.106 0.000
7333 1 188.177 68.876 0.000
7334 1 189.597 68.876 0.000
7335 1 190.307 70.106 0.000
7336 1 191.727 70.106 0.000
7337 1 192.437 68.876 0.000
7338 1 193.857 68.876 0.000
7339 2 193.857 68.876 -1.500
7340 3 194.957 68.876 -1.633
7341 3 192.757 68.876 -1.633
7342 2 193.857 68.876 -3.040
7343 3 194.957 68.876 -3.173
7344 3 193.307 69.829 -3.173
7345 3 193.307 67.923 -3.173
7346 1 194.567 70.106 0.000
7347 1 195.988 70.106 0.000
7348 1 196.698 68.876 0.000
7349 1 198.118 68.876 0.000
7350 1 198.828 70.106 0.000
7351 1 200.248 70.106 0.000
7352 1 200.958 68.876 0.000
7353 1 202.379 68.876 0.000
7354 1 203.089 70.106 0.000
7355 1 204.509 70.106 0.000
7356 1 205.219 68.876 0.000
7357 1 206.639 68.876 0.000
7358 1 207.349 70.106 0.000
7359 1 208.769 70.106 0.000
7360 1 209.480 68.876 0.000
7361 1 210.900 68.876 0.000
7362 1 211.610 70.106 0.000
7363 1 213.030 70.106 0.000
7364 1 213.740 68.876 0.000
7365 1 215.160 68.876 0.000
7366 1 215.870 70.106 0.000
7367 1 217.291 70.106 0.000
7368 1 218.001 68.876 0.000
7369 1 219.421 68.876 0.000
7370 1 220.131 70.106 0.000
7371 1 221.551 70.106 0.000
7372 1 222.261 68.876 0.000
7373 1 223.681 68.876 0.000
7374 1 224.392 70.106 0.000
7375 1 225.812 70.106 0.000
7376 1 226.522 68.876 0.000
7377 1 227.942 68.876 0.000
7378 1 228.652 70.106 0.000
7379 1 230.072 70.106 0.000
7380 1 230.783 68.876 0.000
7381 1 232.203 68.876 0.000
7382 1 232.913 70.106 0.000
7383 1 234.333 70.106 0.000
7384 1 235.043 68.876 0.000
7385 1 236.463 68.876 0.000
7386 1 237.173 70.106 0.000
7387 1 238.594 70.106 0.000
7388 1 239.304 68.876 0.000
7389 1 240.724 68.876 0.000
7390 3 240.724 68.876 1.100
7391 1 241.434 70.106 0.000
7392 1 242.854 70.106 0.000
7393 1 243.564 68.876 0.000
7394 1 244.985 68.876 0.000
7395 1 245.695 70.106 0.000
7396 1 247.115 70.106 0.000
7397 1 247.825 68.876 0.000
7398 1 249.245 68.876 0.000
7399 1 249.955 70.106 0.000
7400 1 0.000 72.566 0.000
7401 1 0.710 71.336 0.000
7402 1 2.130 71.336 0.000
7403 1 2.840 72.566 0.000
7404 1 4.261 72.566 0.000
7405 1 4.971 71.336 0.000
7406 1 6.391 71.336 0.000
7407 1 7.101 72.566 0.000
7408 1 8.521 72.566 0.000
7409 3 8.521 72.566 1.100
7410 1 9.231 71.336 0.000
7411 1 10.652 71.336 0.000
7412 1 11.362 72.566 0.000
7413 1 12.782 72.566 0.000
7414 1 13.492 71.336 0.000
7415 1 14.912 71.336 0.000
7416 1 15.622 72.566 0.000
7417 1 17.042 72.566 0.000
7418 1 17.753 71.336 0.000
7419 3 17.753 71.336 1.100
7420 1 19.173 71.336 0.000
7421 1 19.883 72.566 0.000
7422 1 21.303 72.566 0.000
7423 1 22.013 71.336 0.000
7424 1 23.433 71.336 0.000
7425 1 24.143 72.566 0.000
7426 1 25.564 72.566 0.000
7427 1 26.274 71.336 0.000
7428 1 27.694 71.336 0.000
7429 1 28.404 72.566 0.000
7430 1 29.824 72.566 0.000
7431 1 30.534 71.336 0.000
7432 1 31.954 71.336 0.000
7433 1 32.665 72.566 0.000
7434 1 34.085 72.566 0.000
7435 1 34.795 71.336 0.000
7436 1 36.215 71.336 0.000
7437 1 36.925 72.566 0.000
7438 1 38.345 72.566 0.000
7439 1 39.055 71.336 0.000
7440 1 40.476 71.336 0.000
7441 1 41.186 72.566 0.000
7442 1 42.606 72.566 0.000
7443 3 42.606 72.566 1.100
7444 1 43.316 71.336 0.000
7445 1 44.736 71.336 0.000
7446 1 45.446 72.566 0.000
7447 1 46.867 72.566 0.000
7448 3 46.867 72.566 -1.100
7449 1 47.577 71.336 0.000
7450 1 48.997 71.336 0.000
7451 1 49.707 72.566 0.000
7452 1 51.127 72.566 0.000
7453 1 51.837 71.336 0.000
7454 1 53.258 71.336 0.000
7455 1 53.968 72.566 0.000
7456 1 55.388 72.566 0.000
7457 1 56.098 71.336 0.000
7458 1 57.518 71.336 0.000
7459 1 58.228 72.566 0.000
7460 1 59.648 72.566 0.000
7461 1 60.358 71.336 0.000
7462 1 61.779 71.336 0.000
7463 1 62.489 72.566 0.000
7464 1 63.909 72.566 0.000
7465 1 64.619 71.336 0.000
7466 1 66.039 71.336 0.000
7467 1 66.749 72.566 0.000
7468 1 68.170 72.566 0.000
7469 3 68.170 72.566 1.100
7470 1 68.880 71.336 0.000
7471 1 70.300 71.336 0.000
7472 1 71.010 72.566 0.000
7473 1 72.430 72.566 0.000
7474 1 73.140 71.336 0.000
7475 1 74.561 71.336 0.000
7476 1 75.271 72.566 0.000
7477 1 76.691 72.566 0.000
7478 2 76.691 72.566 -1.500
7479 3 77.791 72.566 -1.633
7480 3 75.591 72.566 -1.633
7481 2 76.691 72.566 -3.040
7482 3 77.791 72.566 -3.173
7483 3 76.141 73.519 -3.173
7484 3 76.141 71.613 -3.173
7485 1 77.401 71.336 0.000
7486 1 78.821 71.336 0.000
7487 1 79.531 72.566 0.000
7488 1 80.951 72.566 0.000
7489 1 81.662 71.336 0.000
7490 1 83.082 71.336 0.000
7491 1 83.792 72.566 0.000
7492 1 85.212 72.566 0.000
7493 1 85.922 71.336 0.000
7494 1 87.342 71.336 0.000
7495 1 88.052 72.566 0.000
7496 1 89.473 72.566 0.000
7497 1 90.183 71.336 0.000
7498 1 91.603 71.336 0.000
7499 1 92.313 72.566 0.000
7500 1 93.733 72.566 0.000
7501 1 94.443 71.336 0.000
7502 1 95.864 71.336 0.000
7503 3 95.864 71.336 -1.100
7504 1 96.574 72.566 0.000
7505 1 97.994 72.566 0.000
7506 1 98.704 71.336 0.000
7507 1 100.124 71.336 0.000
7508 1 100.834 72.566 0.000
7509 1 102.254 72.566 0.000
7510 1 102.965 71.336 0.000
7511 1 104.385 71.336 0.000
7512 1 105.095 72.566 0.000
7513 1 106.515 72.566 0.000
7514 1 107.225 71.336 0.000
7515 1 108.645 71.336 0.000
7516 1 109.355 72.566 0.000
7517 1 110.776 72.566 0.000
7518 1 111.486 71.336 0.000
7519 1 112.906 71.336 0.000
7520 1 113.616 72.566 0.000
7521 1 115.036 72.566 0.000
7522 1 115.746 71.336 0.000
7523 1 117.167 71.336 0.000
7524 1 117.877 72.566 0.000
7525 1 119.297 72.566 0.000
7526 1 120.007 71.336 0.000
7527 1 121.427 71.336 0.000
7528 1 122.137 72.566 0.000
7529 1 123.557 72.566 0.000
7530 1 124.267 71.336 0.000
7531 1 125.688 71.336 0.000
7532 1 126.398 72.566 0.000
7533 1 127.818 72.566 0.000
7534 1 128.528 71.336 0.000
7535 1 129.948 71.336 0.000
7536 1 130.658 72.566 0.000
7537 1 132.079 72.566 0.000
7538 1 132.789 71.336 0.000
7539 1 134.209 71.336 0.000
7540 1 134.919 72.566 0.000
7541 1 136.339 72.566 0.000
7542 1 137.049 71.336 0.000
7543 1 138.470 71.336 0.000
7544 1 139.180 72.566 0.000
7545 1 140.600 72.566 0.000
7546 1 141.310 71.336 0.000
7547 1 142.730 71.336 0.000
7548 1 143.440 72.566 0.000
7549 1 144.860 72.566 0.000
7550 1 145.571 71.336 0.000
7551 3 145.571 71.336 -1.100
7552 1 146.991 71.336 0.000
7553 1 147.701 72.566 0.000
7554 1 149.121 72.566 0.000
7555 1 149.831 71.336 0.000
7556 1 151.251 71.336 0.000
7557 1 151.961 72.566 0.000
7558 1 153.382 72.566 0.000
7559 1 154.092 71.336 0.000
7560 2 154.092 71.336 -1.500
7561 3 155.192 71.336 -1.633
7562 3 152.992 71.336 -1.633
7563 2 154.092 71.336 -3.040
7564 3 155.192 71.336 -3.173
7565 3 153.542 72.289 -3.173
7566 3 153.542 70.383 -3.173
7567 1 155.512 71.336 0.000
7568 1 156.222 72.566 0.000
7569 1 157.642 72.566 0.000
7570 1 158.352 71.336 0.000
7571 1 159.773 71.336 0.000
7572 1 160.483 72.566 0.000
7573 1 161.903 72.566 0.000
7574 1 162.613 71.336 0.000
7575 1 164.033 71.336 0.000
7576 1 164.743 72.566 0.000
7577 1 166.163 72.566 0.000
7578 1 166.874 71.336 0.000
7579 1 168.294 71.336 0.000
7580 1 169.004 72.566 0.000
7581 1 170.424 72.566 0.000
7582 1 171.134 71.336 0.000
7583 1 172.554 71.336 0.000
7584 1 173.264 72.566 0.000
7585 1 174.685 72.566 0.000
7586 1 175.395 71.336 0.000
7587 1 176.815 71.336 0.000
7588 1 177.525 72.566 0.000
7589 1 178.945 72.566 0.000
7590 1 179.655 71.336 0.000
7591 1 181.076 71.336 0.000
7592 1 181.786 72.566 0.000
7593 1 183.206 72.566 0.000
7594 1 183.916 71.336 0.000
7595 1 185.336 71.336 0.000
7596 1 186.046 72.566 0.000
7597 1 187.466 72.566 0.000
7598 1 188.177 71.336 0.000
7599 1 189.597 71.336 0.000
7600 1 190.307 72.566 0.000
7601 1 191.727 72.566 0.000
7602 2 191.727 72.566 1.500
7603 3 192.827 72.566 1.633
7604 3 191.177 73.519 1.633
7605 3 191.177 71.613 1.633
7606 1 192.437 71.336 0.000
7607 1 193.857 71.336 0.000
7608 1 194.567 72.566 0.000
7609 1 195.988 72.566 0.000
7610 1 196.698 71.336 0.000
7611 1 198.118 71.336 0.000
7612 1 198.828 72.566 0.000
7613 1 200.248 72.566 0.000
7614 1 200.958 71.336 0.000
7615 1 202.379 71.336 0.000
7616 1 203.089 72.566 0.000
7617 1 204.509 72.566 0.000
7618 1 205.219 71.336 0.000
7619 1 206.639 71.336 0.000
7620 1 207.349 72.566 0.000
7621 1 208.769 72.566 0.000
7622 1 209.480 71.336 0.000
7623 1 210.900 71.336 0.000
7624 1 211.610 72.566 0.000
7625 2 211.610 72.566 -1.500
7626 3 212.710 72.566 -1.633
7627 3 211.060 73.519 -1.633
7628 3 211.060 71.613 -1.633
7629 1 213.030 72.566 0.000
7630 1 213.740 71.336 0.000
7631 1 215.160 71.336 0.000
7632 1 215.870 72.566 0.000
7633 1 217.291 72.566 0.000
7634 1 218.001 71.336 0.000
7635 1 219.421 71.336 0.000
7636 1 220.131 72.566 0.000
7637 1 221.551 72.566 0.000
7638 1 222.261 71.336 0.000
7639 1 223.681 71.336 0.000
7640 1 224.392 72.566 0.000
7641 1 225.812 72.566 0.000
7642 1 226.522 71.336 0.000
7643 1 227.942 71.336 0.000
7644 1 228.652 72.566 0.000
7645 1 230.072 72.566 0.000
7646 1 230.783 71.336 0.000
7647 1 232.203 71.336 0.000
7648 1 232.913 72.566 0.000
7649 1 234.333 72.566 0.000
7650 1 235.043 71.336 0.000
7651 1 236.463 71.336 0.000
7652 1 237.173 72.566 0.000
7653 1 238.594 72.566 0.000
7654 1 239.304 71.336 0.000
7655 1 240.724 71.336 0.000
7656 1 241.434 72.566 0.000
7657 1 242.854 72.566 0.000
7658 1 243.564 71.336 0.000
7659 1 244.985 71.336 0.000
7660 1 245.695 72.566 0.000
7661 1 247.115 72.566 0.000
7662 1 247.825 71.336 0.000
7663 1 249.245 71.336 0.000
7664 1 249.955 72.566 0.000
7665 1 0.000 75.026 0.000
7666 1 0.710 73.796 0.000
7667 1 2.130 73.796 0.000
7668 1 2.840 75.026 0.000
7669 1 4.261 75.026 0.000
7670 1 4.971 73.796 0.000
7671 1 6.391 73.796 0.000
7672 1 7.101 75.026 0.000
7673 1 8.521 75.026 0.000
7674 1 9.231 73.796 0.000
7675 1 10.652 73.796 0.000
7676 1 11.362 75.026 0.000
7677 1 12.782 75.026 0.000
7678 1 13.492 73.796 0.000
7679 1 14.912 73.796 0.000
7680 1 15.622 75.026 0.000
7681 1 17.042 75.026 0.000
7682 1 17.753 73.796 0.000
7683 1 19.173 73.796 0.000
7684 1 19.883 75.026 0.000
7685 1 21.303 75.026 0.000
7686 1 22.013 73.796 0.000
7687 1 23.433 73.796 0.000
7688 1 24.143 75.026 0.000
7689 1 25.564 75.026 0.000
7690 1 26.274 73.796 0.000
7691 2 26.274 73.796 -1.500
7692 3 27.374 73.796 -1.633
7693 3 25.174 73.796 -1.633
7694 2 26.274 73.796 -3.040
7695 3 27.374 73.796 -3.173
7696 3 25.724 74.749 -3.173
7697 3 25.724 72.843 -3.173
7698 1 27.694 73.796 0.000
7699 1 28.404 75.026 0.000
7700 1 29.824 75.026 0.000
7701 1 30.534 73.796 0.000
7702 2 30.534 73.796 -1.500
7703 3 31.634 73.796 -1.633
7704 3 29.434 73.796 -1.633
7705 2 30.534 73.796 -3.040
7706 3 31.634 73.796 -3.173
7707 3 29.984 74.749 -3.173
7708 3 29.984 72.843 -3.173
7709 1 31.954 73.796 0.000
7710 1 32.665 75.026 0.000
7711 3 32.665 75.026 -1.100
7712 1 34.085 75.026 0.000
7713 1 34.795 73.796 0.000
7714 1 36.215 73.796 0.000
7715 1 36.925 75.026 0.000
7716 1 38.345 75.026 0.000
7717 1 39.055 73.796 0.000
7718 1 40.476 73.796 0.000
7719 1 41.186 75.026 0.000
7720 1 42.606 75.026 0.000
7721 1 43.316 73.796 0.000
7722 1 44.736 73.796 0.000
7723 1 45.446 75.026 0.000
7724 1 46.867 75.026 0.000
7725 1 47.577 73.796 0.000
7726 1 48.997 73.796 0.000
7727 1 49.707 75.026 0.000
7728 3 49.707 75.026 1.100
7729 1 51.127 75.026 0.000
7730 1 51.837 73.796 0.000
7731 1 53.258 73.796 0.000
7732 1 53.968 75.026 0.000
7733 1 55.388 75.026 0.000
7734 1 56.098 73.796 0.000
7735 1 57.518 73.796 0.000
7736 1 58.228 75.026 0.000
7737 1 59.648 75.026 0.000
7738 1 60.358 73.796 0.000
7739 1 61.779 73.796 0.000
7740 1 62.489 75.026 0.000
7741 1 63.909 75.026 0.000
7742 1 64.619 73.796 0.000
7743 3 64.619 73.796 1.100
7744 1 66.039 73.796 0.000
7745 3 66.039 73.796 -1.100
7746 1 66.749 75.026 0.000
7747 1 68.170 75.026 0.000
7748 1 68.880 73.796 0.000
7749 1 70.300 73.796 0.000
7750 1 71.010 75.026 0.000
7751 1 72.430 75.026 0.000
7752 1 73.140 73.796 0.000
7753 1 74.561 73.796 0.000
7754 1 75.271 75.026 0.000
7755 1 76.691 75.026 0.000
7756 1 77.401 73.796 0.000
7757 1 78.821 73.796 0.000
7758 1 79.531 75.026 0.000
7759 1 80.951 75.026 0.000
7760 1 81.662 73.796 0.000
7761 1 83.082 73.796 0.000
7762 1 83.792 75.026 0.000
7763 1 85.212 75.026 0.000
7764 1 85.922 73.796 0.000
7765 2 85.922 73.796 -1.500
7766 3 87.022 73.796 -1.633
7767 3 84.822 73.796 -1.633
7768 2 85.922 73.796 -3.040
7769 3 87.022 73.796 -3.173
7770 3 85.372 74.749 -3.173
7771 3 85.372 72.843 -3.173
7772 1 87.342 73.796 0.000
7773 1 88.052 75.026 0.000
7774 1 89.473 75.026 0.000
7775 1 90.183 73.796 0.000
7776 1 91.603 73.796 0.000
7777 1 92.313 75.026 0.000
7778 1 93.733 75.026 0.000
7779 1 94.443 73.796 0.000
7780 1 95.864 73.796 0.000
7781 1 96.574 75.026 0.000
7782 1 97.994 75.026 0.000
7783 1 98.704 73.796 0.000
7784 1 100.124 73.796 0.000
7785 1 100.834 75.026 0.000
7786 3 100.834 75.026 -1.100
7787 1 102.254 75.026 0.000
7788 1 102.965 73.796 0.000
7789 1 104.385 73.796 0.000
7790 1 105.095 75.026 0.000
7791 1 106.515 75.026 0.000
7792 1 107.225 73.796 0.000
7793 1 108.645 73.796 0.000
7794 1 109.355 75.026 0.000
7795 1 110.776 75.026 0.000
7796 3 110.776 75.026 1.100
7797 1 111.486 73.796 0.000
7798 1 112.906 73.796 0.000
7799 1 113.616 75.026 0.000
7800 1 115.036 75.026 0.000
7801 1 115.746 73.796 0.000
7802 1 117.167 73.796 0.000
7803 1 117.877 75.026 0.000
7804 1 119.297 75.026 0.000
7805 1 120.007 73.796 0.000
7806 1 121.427 73.796 0.000
7807 1 122.137 75.026 0.000
7808 3 122.137 75.026 1.100
7809 1 123.557 75.026 0.000
7810 1 124.267 73.796 0.000
7811 1 125.688 73.796 0.000
7812 1 126.398 75.026 0.000
7813 1 127.818 75.026 0.000
7814 1 128.528 73.796 0.000
7815 1 129.948 73.796 0.000
7816 1 130.658 75.026 0.000
7817 1 132.079 75.026 0.000
7818 1 132.789 73.796 0.000
7819 3 132.789 73.796 1.100
7820 1 134.209 73.796 0.000
7821 1 134.919 75.026 0.000
7822 1 136.339 75.026 0.000
7823 1 137.049 73.796 0.000
7824 1 138.470 73.796 0.000
7825 1 139.180 75.026 0.000
7826 1 140.600 75.026 0.000
7827 1 141.310 73.796 0.000
7828 1 142.730 73.796 0.000
7829 1 143.440 75.026 0.000
7830 1 144.860 75.026 0.000
7831 1 145.571 73.796 0.000
7832 1 146.991 73.796 0.000
7833 1 147.701 75.026 0.000
7834 1 149.121 75.026 0.000
7835 1 149.831 73.796 0.000
7836 1 151.251 73.796 0.000
7837 1 151.961 75.026 0.000
7838 1 153.382 75.026 0.000
7839 3 153.382 75.026 -1.100
7840 1 154.092 73.796 0.000
7841 1 155.512 73.796 0.000
7842 1 156.222 75.026 0.000
7843 1 157.642 75.026 0.000
7844 1 158.352 73.796 0.000
7845 1 159.773 73.796 0.000
7846 1 160.483 75.026 0.000
7847 1 161.903 75.026 0.000
7848 1 162.613 73.796 0.000
7849 1 164.033 73.796 0.000
7850 1 164.743 75.026 0.000
7851 1 166.163 75.026 0.000
7852 1 166.874 73.796 0.000
7853 1 168.294 73.796 0.000
7854 1 169.004 75.026 0.000
7855 1 170.424 75.026 0.000
7856 1 171.134 73.796 0.000
7857 1 172.554 73.796 0.000
7858 1 173.264 75.026 0.000
7859 1 174.685 75.026 0.000
7860 1 175.395 73.796 0.000
7861 1 176.815 73.796 0.000
7862 1 177.525 75.026 0.000
7863 1 178.945 75.026 0.000
7864 1 179.655 73.796 0.000
7865 1 181.076 73.796 0.000
7866 1 181.786 75.026 0.000
7867 1 183.206 75.026 0.000
7868 1 183.916 73.796 0.000
7869 1 185.336 73.796 0.000
7870 1 186.046 75.026 0.000
7871 1 187.466 75.026 0.000
7872 1 188.177 73.796 0.000
7873 1 189.597 73.796 0.000
7874 1 190.307 75.026 0.000
7875 1 191.727 75.026 0.000
7876 1 192.437 73.796 0.000
7877 1 193.857 73.796 0.000
7878 1 194.567 75.026 0.000
7879 1 195.988 75.026 0.000
7880 1 196.698 73.796 0.000
7881 1 198.118 73.796 0.000
7882 1 198.828 75.026 0.000
7883 1 200.248 75.026 0.000
7884 1 200.958 73.796 0.000
7885 3 200.958 73.796 1.100
7886 1 202.379 73.796 0.000
7887 1 203.089 75.026 0.000
7888 1 204.509 75.026 0.000
7889 1 205.219 73.796 0.000
7890 1 206.639 73.796 0.000
7891 1 207.349 75.026 0.000
7892 1 208.769 75.026 0.000
7893 1 209.480 73.796 0.000
7894 1 210.900 73.796 0.000
7895 1 211.610 75.026 0.000
7896 1 213.030 75.026 0.000
7897 1 213.740 73.796 0.000
7898 1 215.160 73.796 0.000
7899 1 215.870 75.026 0.000
7900 1 217.291 75.026 0.000
7901 1 218.001 73.796 0.000
7902 1 219.421 73.796 0.000
7903 1 220.131 75.026 0.000
7904 1 221.551 75.026 0.000
7905 1 222.261 73.796 0.000
7906 1 223.681 73.796 0.000
7907 1 224.392 75.026 0.000
7908 1 225.812 75.026 0.000
7909 1 226.522 73.796 0.000
7910 1 227.942 73.796 0.000
7911 1 228.652 75.026 0.000
7912 1 230.072 75.026 0.000
7913 1 230.783 73.796 0.000
7914 1 232.203 73.796 0.000
7915 1 232.913 75.026 0.000
7916 1 234.333 75.026 0.000
7917 1 235.043 73.796 0.000
7918 1 236.463 73.796 0.000
7919 1 237.173 75.026 0.000
7920 1 238.594 75.026 0.000
7921 1 239.304 73.796 0.000
7922 1 240.724 73.796 0.000
7923 2 240.724 73.796 1.500
7924 3 241.824 73.796 1.633
7925 3 240.174 74.749 1.633
7926 3 240.174 72.843 1.633
7927 1 241.434 75.026 0.000
7928 1 242.854 75.026 0.000
7929 1 243.564 73.796 0.000
7930 1 244.985 73.796 0.000
7931 1 245.695 75.026 0.000
7932 1 247.115 75.026 0.000
7933 1 247.825 73.796 0.000
7934 1 249.245 73.796 0.000
7935 1 249.955 75.026 0.000
7936 1 0.000 77.486 0.000
7937 1 0.710 76.256 0.000
7938 1 2.130 76.256 0.000
7939 1 2.840 77.486 0.000
7940 1 4.261 77.486 0.000
7941 1 4.971 76.256 0.000
7942 1 6.391 76.256 0.000
7943 1 7.101 77.486 0.000
7944 1 8.521 77.486 0.000
7945 1 9.231 76.256 0.000
7946 1 10.652 76.256 0.000
7947 1 11.362 77.486 0.000
7948 1 12.782 77.486 0.000
7949 1 13.492 76.256 0.000
7950 1 14.912 76.256 0.000
7951 1 15.622 77.486 0.000
7952 1 17.042 77.486 0.000
7953 1 17.753 76.256 0.000
7954 1 19.173 76.256 0.000
7955 1 19.883 77.486 0.000
7956 1 21.303 77.486 0.000
7957 1 22.013 76.256 0.000
7958 1 23.433 76.256 0.000
7959 1 24.143 77.486 0.000
7960 1 25.564 77.486 0.000
7961 1 26.274 76.256 0.000
7962 1 27.694 76.256 0.000
7963 1 28.404 77.486 0.000
7964 1 29.824 77.486 0.000
7965 1 30.534 76.256 0.000
7966 1 31.954 76.256 0.000
7967 1 32.665 77.486 0.000
7968 1 34.085 77.486 0.000
7969 1 34.795 76.256 0.000
7970 1 36.215 76.256 0.000
7971 1 36.925 77.486 0.000
7972 1 38.345 77.486 0.000
7973 1 39.055 76.256 0.000
7974 1 40.476 76.256 0.000
7975 1 41.186 77.486 0.000
7976 1 42.606 77.486 0.000
7977 1 43.316 76.256 0.000
7978 1 44.736 76.256 0.000
7979 1 45.446 77.486 0.000
7980 1 46.867 77.486 0.000
7981 1 47.577 76.256 0.000
7982 1 48.997 76.256 0.000
7983 1 49.707 77.486 0.000
7984 1 51.127 77.486 0.000
7985 1 51.837 76.256 0.000
7986 2 51.837 76.256 1.500
7987 3 52.937 76.256 1.633
7988 3 50.737 76.256 1.633
7989 2 51.837 76.256 3.040
7990 3 52.937 76.256 3.173
7991 3 51.287 77.209 3.173
7992 3 51.287 75.303 3.173
7993 1 53.258 76.256 0.000
7994 1 53.968 77.486 0.000
7995 1 55.388 77.486 0.000
7996 1 56.098 76.256 0.000
7997 1 57.518 76.256 0.000
7998 1 58.228 77.486 0.000
7999 1 59.648 77.486 0.000
8000 3 59.648 77.486 -1.100
8001 1 60.358 76.256 0.000
8002 1 61.779 76.256 0.000
8003 1 62.489 77.486 0.000
8004 1 63.909 77.486 0.000
8005 1 64.619 76.256 0.000
8006 1 66.039 76.256 0.000
8007 1 66.749 77.486 0.000
8008 1 68.170 77.486 0.000
8009 1 68.880 76.256 0.000
8010 1 70.300 76.256 0.000
8011 1 71.010 77.486 0.000
8012 1 72.430 77.486 0.000
8013 1 73.140 76.256 0.000
8014 1 74.561 76.256 0.000
8015 1 75.271 77.486 0.000
8016 1 76.691 77.486 0.000
8017 1 77.401 76.256 0.000
8018 1 78.821 76.256 0.000
8019 1 79.531 77.486 0.000
8020 1 80.951 77.486 0.000
8021 2 80.951 77.486 -1.500
8022 3 82.051 77.486 -1.633
8023 3 80.401 78.439 -1.633
8024 3 80.401 76.533 -1.633
8025 1 81.662 76.256 0.000
8026 1 83.082 76.256 0.000
8027 1 83.792 77.486 0.000
8028 1 85.212 77.486 0.000
8029 1 85.922 76.256 0.000
8030 1 87.342 76.256 0.000
8031 1 88.052 77.486 0.000
8032 1 89.473 77.486 0.000
8033 1 90.183 76.256 0.000
8034 1 91.603 76.256 0.000
8035 1 92.313 77.486 0.000
8036 1 93.733 77.486 0.000
8037 1 94.443 76.256 0.000
8038 1 95.864 76.256 0.000
8039 1 96.574 77.486 0.000
8040 1 97.994 77.486 0.000
8041 1 98.704 76.256 0.000
8042 1 100.124 76.256 0.000
8043 1 100.834 77.486 0.000
8044 1 102.254 77.486 0.000
8045 1 102.965 76.256 0.000
8046 1 104.385 76.256 0.000
8047 1 105.095 77.486 0.000
8048 1 106.515 77.486 0.000
8049 1 107.225 76.256 0.000
8050 1 108.645 76.256 0.000
8051 1 109.355 77.486 0.000
8052 1 110.776 77.486 0.000
8053 1 111.486 76.256 0.000
8054 1 112.906 76.256 0.000
8055 1 113.616 77.486 0.000
8056 1 115.036 77.486 0.000
8057 1 115.746 76.256 0.000
8058 1 117.167 76.256 0.000
8059 1 117.877 77.486 0.000
8060 1 119.297 77.486 0.000
8061 1 120.007 76.256 0.000
8062 1 121.427 76.256 0.000
8063 1 122.137 77.486 0.000
8064 1 123.557 77.486 0.000
8065 1 124.267 76.256 0.000
8066 1 125.688 76.256 0.000
8067 1 126.398 77.486 0.000
8068 3 126.398 77.486 -1.100
8069 1 127.818 77.486 0.000
8070 3 127.818 77.486 -1.100
8071 1 128.528 76.256 0.000
8072 1 129.948 76.256 0.000
8073 1 130.658 77.486 0.000
8074 1 132.079 77.486 0.000
8075 1 132.789 76.256 0.000
8076 1 134.209 76.256 0.000
8077 3 134.209 76.256 1.100
8078 1 134.919 77.486 0.000
8079 1 136.339 77.486 0.000
8080 1 137.049 76.256 0.000
8081 1 138.470 76.256 0.000
8082 1 139.180 77.486 0.000
8083 1 140.600 77.486 0.000
8084 1 141.310 76.256 0.000
8085 1 142.730 76.256 0.000
8086 1 143.440 77.486 0.000
8087 1 144.860 77.486 0.000
8088 1 145.571 76.256 0.000
8089 1 146.991 76.256 0.000
8090 1 147.701 77.486 0.000
8091 1 149.121 77.486 0.000
8092 1 149.831 76.256 0.000
8093 1 151.251 76.256 0.000
8094 1 151.961 77.486 0.000
8095 1 153.382 77.486 0.000
8096 1 154.092 76.256 0.000
8097 1 155.512 76.256 0.000
8098 1 156.222 77.486 0.000
8099 1 157.642 77.486 0.000
8100 1 158.352 76.256 0.000
8101 1 159.773 76.256 0.000
8102 1 160.483 77.486 0.000
8103 1 161.903 77.486 0.000
8104 1 162.613 76.256 0.000
8105 1 164.033 76.256 0.000
8106 1 164.743 77.486 0.000
8107 1 166.163 77.486 0.000
8108 1 166.874 76.256 0.000
8109 1 168.294 76.256 0.000
8110 1 169.004 77.486 0.000
8111 1 170.424 77.486 0.000
8112 1 171.134 76.256 0.000
8113 1 172.554 76.256 0.000
8114 1 173.264 77.486 0.000
8115 1 174.685 77.486 0.000
8116 1 175.395 76.256 0.000
8117 1 176.815 76.256 0.000
8118 1 177.525 77.486 0.000
8119 1 178.945 77.486 0.000
8120 1 179.655 76.256 0.000
8121 1 181.076 76.256 0.000
8122 1 181.786 77.486 0.000
8123 1 183.206 77.486 0.000
8124 1 183.916 76.256 0.000
8125 1 185.336 76.256 0.000
8126 1 186.046 77.486 0.000
8127 1 187.466 77.486 0.000
8128 1 188.177 76.256 0.000
8129 1 189.597 76.256 0.000
8130 1 190.307 77.486 0.000
8131 1 191.727 77.486 0.000
8132 1 192.437 76.256 0.000
8133 1 193.857 76.256 0.000
8134 1 194.567 77.486 0.000
8135 1 195.988 77.486 0.000
8136 1 196.698 76.256 0.000
8137 1 198.118 76.256 0.000
8138 1 198.828 77.486 0.000
8139 1 200.248 77.486 0.000
8140 1 200.958 76.256 0.000
8141 1 202.379 76.256 0.000
8142 1 203.089 77.486 0.000
8143 1 204.509 77.486 0.000
8144 1 205.219 76.256 0.000
8145 1 206.639 76.256 0.000
8146 1 207.349 77.486 0.000
8147 1 208.769 77.486 0.000
8148 1 209.480 76.256 0.000
8149 3 209.480 76.256 1.100
8150 1 210.900 76.256 0.000
8151 1 211.610 77.486 0.000
8152 1 213.030 77.486 0.000
8153 1 213.740 76.256 0.000
8154 1 215.160 76.256 0.000
8155 1 215.870 77.486 0.000
8156 1 217.291 77.486 0.000
8157 1 218.001 76.256 0.000
8158 1 219.421 76.256 0.000
8159 1 220.131 77.486 0.000
8160 1 221.551 77.486 0.000
8161 1 222.261 76.256 0.000
8162 1 223.681 76.256 0.000
8163 1 224.392 77.486 0.000
8164 1 225.812 77.486 0.000
8165 1 226.522 76.256 0.000
8166 1 227.942 76.256 0.000
8167 1 228.652 77.486 0.000
8168 1 230.072 77.486 0.000
8169 1 230.783 76.256 0.000
8170 1 232.203 76.256 0.000
8171 1 232.913 77.486 0.000
8172 1 234.333 77.486 0.000
8173 1 235.043 76.256 0.000
8174 1 236.463 76.256 0.000
8175 1 237.173 77.486 0.000
8176 1 238.594 77.486 0.000
8177 1 239.304 76.256 0.000
8178 1 240.724 76.256 0.000
8179 1 241.434 77.486 0.000
8180 1 242.854 77.486 0.000
8181 1 243.564 76.256 0.000
8182 1 244.985 76.256 0.000
8183 1 245.695 77.486 0.000
8184 1 247.115 77.486 0.000
8185 1 247.825 76.256 0.000
8186 1 249.245 76.256 0.000
8187 1 249.955 77.486 0.000
8188 1 0.000 79.945 0.000
8189 1 0.710 78.715 0.000
8190 1 2.130 78.715 0.000
8191 1 2.840 79.945 0.000
8192 1 4.261 79.945 0.000
8193 1 4.971 78.715 0.000
8194 1 6.391 78.715 0.000
8195 1 7.101 79.945 0.000
8196 1 8.521 79.945 0.000
8197 1 9.231 78.715 0.000
8198 1 10.652 78.715 0.000
8199 1 11.362 79.945 0.000
8200 1 12.782 79.945 0.000
8201 1 13.492 78.715 0.000
8202 1 14.912 78.715 0.000
8203 1 15.622 79.945 0.000
8204 1 17.042 79.945 0.000
8205 1 17.753 78.715 0.000
8206 1 19.173 78.715 0.000
8207 1 19.883 79.945 0.000
8208 1 21.303 79.945 0.000
8209 1 22.013 78.715 0.000
8210 1 23.433 78.715 0.000
8211 1 24.143 79.945 0.000
8212 1 25.564 79.945 0.000
8213 1 26.274 78.715 0.000
8214 1 27.694 78.715 0.000
8215 1 28.404 79.945 0.000
8216 1 29.824 79.945 0.000
8217 1 30.534 78.715 0.000
8218 1 31.954 78.715 0.000
8219 1 32.665 79.945 0.000
8220 1 34.085 79.945 0.000
8221 1 34.795 78.715 0.000
8222 1 36.215 78.715 0.000
8223 1 36.925 79.945 0.000
8224 1 38.345 79.945 0.000
8225 1 39.055 78.715 0.000
8226 1 40.476 78.715 0.000
8227 1 41.186 79.945 0.000
8228 1 42.606 79.945 0.000
8229 1 43.316 78.715 0.000
8230 1 44.736 78.715 0.000
8231 1 45.446 79.945 0.000
8232 1 46.867 79.945 0.000
8233 1 47.577 78.715 0.000
8234 1 48.997 78.715 0.000
8235 1 49.707 79.945 0.000
8236 1 51.127 79.945 0.000
8237 1 51.837 78.715 0.000
8238 1 53.258 78.715 0.000
8239 1 53.968 79.945 0.000
8240 1 55.388 79.945 0.000
8241 1 56.098 78.715 0.000
8242 1 57.518 78.715 0.000
8243 1 58.228 79.945 0.000
8244 1 59.648 79.945 0.000
8245 1 60.358 78.715 0.000
8246 1 61.779 78.715 0.000
8247 1 62.489 79.945 0.000
8248 1 63.909 79.945 0.000
8249 1 64.619 78.715 0.000
8250 1 66.039 78.715 0.000
8251 1 66.749 79.945 0.000
8252 1 68.170 79.945 0.000
8253 1 68.880 78.715 0.000
8254 1 70.300 78.715 0.000
8255 1 71.010 79.945 0.000
8256 1 72.430 79.945 0.000
8257 1 73.140 78.715 0.000
8258 1 74.561 78.715 0.000
8259 1 75.271 79.945 0.000
8260 1 76.691 79.945 0.000
8261 1 77.401 78.715 0.000
8262 1 78.821 78.715 0.000
8263 1 79.531 79.945 0.000
8264 1 80.951 79.945 0.000
8265 1 81.662 78.715 0.000
8266 1 83.082 78.715 0.000
8267 1 83.792 79.945 0.000
8268 1 85.212 79.945 0.000
8269 1 85.922 78.715 0.000
8270 1 87.342 78.715 0.000
8271 1 88.052 79.945 0.000
8272 1 89.473 79.945 0.000
8273 1 90.183 78.715 0.000
8274 1 91.603 78.715 0.000
8275 1 92.313 79.945 0.000
8276 1 93.733 79.945 0.000
8277 1 94.443 78.715 0.000
8278 1 95.864 78.715 0.000
8279 1 96.574 79.945 0.000
8280 1 97.994 79.945 0.000
8281 1 98.704 78.715 0.000
8282 1 100.124 78.715 0.000
8283 1 100.834 79.945 0.000
8284 1 102.254 79.945 0.000
8285 1 102.965 78.715 0.000
8286 2 102.965 78.715 -1.500
8287 3 104.065 78.715 -1.633
8288 3 101.865 78.715 -1.633
8289 2 102.965 78.715 -3.040
8290 3 104.065 78.715 -3.173
8291 3 102.415 79.668 -3.173
8292 3 102.415 77.762 -3.173
8293 1 104.385 78.715 0.000
8294 1 105.095 79.945 0.000
8295 1 106.515 79.945 0.000
8296 1 107.225 78.715 0.000
8297 1 108.645 78.715 0.000
8298 1 109.355 79.945 0.000
8299 1 110.776 79.945 0.000
8300 1 111.486 78.715 0.000
8301 1 112.906 78.715 0.000
8302 1 113.616 79.945 0.000
8303 1 115.036 79.945 0.000
8304 1 115.746 78.715 0.000
8305 1 117.167 78.715 0.000
8306 1 117.877 79.945 0.000
8307 1 119.297 79.945 0.000
8308 1 120.007 78.715 0.000
8309 1 121.427 78.715 0.000
8310 1 122.137 79.945 0.000
8311 1 123.557 79.945 0.000
8312 1 124.267 78.715 0.000
8313 1 125.688 78.715 0.000
8314 1 126.398 79.945 0.000
8315 1 127.818 79.945 0.000
8316 1 128.528 78.715 0.000
8317 1 129.948 78.715 0.000
8318 1 130.658 79.945 0.000
8319 1 132.079 79.945 0.000
8320 1 132.789 78.715 0.000
8321 1 134.209 78.715 0.000
8322 1 134.919 79.945 0.000
8323 1 136.339 79.945 0.000
8324 1 137.049 78.715 0.000
8325 1 138.470 78.715 0.000
8326 1 139.180 79.945 0.000
8327 1 140.600 79.945 0.000
8328 1 141.310 78.715 0.000
8329 1 142.730 78.715 0.000
8330 1 143.440 79.945 0.000
8331 1 144.860 79.945 0.000
8332 1 145.571 78.715 0.000
8333 1 146.991 78.715 0.000
8334 1 147.701 79.945 0.000
8335 1 149.121 79.945 0.000
8336 1 149.831 78.715 0.000
8337 1 151.251 78.715 0.000
8338 1 151.961 79.945 0.000
8339 1 153.382 79.945 0.000
8340 1 154.092 78.715 0.000
8341 1 155.512 78.715 0.000
8342 1 156.222 79.945 0.000
8343 1 157.642 79.945 0.000
8344 1 158.352 78.715 0.000
8345 1 159.773 78.715 0.000
8346 2 159.773 78.715 -1.500
8347 3 160.873 78.715 -1.633
8348 3 159.223 79.668 -1.633
8349 3 159.223 77.762 -1.633
8350 1 160.483 79.945 0.000
8351 1 161.903 79.945 0.000
8352 1 162.613 78.715 0.000
8353 1 164.033 78.715 0.000
8354 1 164.743 79.945 0.000
8355 1 166.163 79.945 0.000
8356 1 166.874 78.715 0.000
8357 1 168.294 78.715 0.000
8358 1 169.004 79.945 0.000
8359 1 170.424 79.945 0.000
8360 1 171.134 78.715 0.000
8361 1 172.554 78.715 0.000
8362 1 173.264 79.945 0.000
8363 1 174.685 79.945 0.000
8364 1 175.395 78.715 0.000
8365 1 176.815 78.715 0.000
8366 1 177.525 79.945 0.000
8367 1 178.945 79.945 0.000
8368 1 179.655 78.715 0.000
8369 1 181.076 78.715 0.000
8370 1 181.786 79.945 0.000
8371 1 183.206 79.945 0.000
8372 1 183.916 78.715 0.000
8373 3 183.916 78.715 1.100
8374 1 185.336 78.715 0.000
8375 1 186.046 79.945 0.000
8376 1 187.466 79.945 0.000
8377 1 188.177 78.715 0.000
8378 3 188.177 78.715 1.100
8379 1 189.597 78.715 0.000
8380 1 190.307 79.945 0.000
8381 1 191.727 79.945 0.000
8382 1 192.437 78.715 0.000
8383 1 193.857 78.715 0.000
8384 1 194.567 79.945 0.000
8385 1 195.988 79.945 0.000
8386 1 196.698 78.715 0.000
8387 1 198.118 78.715 0.000
8388 1 198.828 79.945 0.000
8389 1 200.248 79.945 0.000
8390 1 200.958 78.715 0.000
8391 1 202.379 78.715 0.000
8392 1 203.089 79.945 0.000
8393 1 204.509 79.945 0.000
8394 1 205.219 78.715 0.000
8395 1 206.639 78.715 0.000
8396 1 207.349 79.945 0.000
8397 1 208.769 79.945 0.000
8398 1 209.480 78.715 0.000
8399 1 210.900 78.715 0.000
8400 1 211.610 79.945 0.000
8401 1 213.030 79.945 0.000
8402 1 213.740 78.715 0.000
8403 1 215.160 78.715 0.000
8404 1 215.870 79.945 0.000
8405 1 217.291 79.945 0.000
8406 1 218.001 78.715 0.000
8407 1 219.421 78.715 0.000
8408 1 220.131 79.945 0.000
8409 3 220.131 79.945 -1.100
8410 1 221.551 79.945 0.000
8411 1 222.261 78.715 0.000
8412 1 223.681 78.715 0.000
8413 1 224.392 79.945 0.000
8414 1 225.812 79.945 0.000
8415 1 226.522 78.715 0.000
8416 1 227.942 78.715 0.000
8417 1 228.652 79.945 0.000
8418 1 230.072 79.945 0.000
8419 1 230.783 78.715 0.000
8420 1 232.203 78.715 0.000
8421 1 232.913 79.945 0.000
8422 1 234.333 79.945 0.000
8423 3 234.333 79.945 1.100
8424 1 235.043 78.715 0.000
8425 1 236.463 78.715 0.000
8426 1 237.173 79.945 0.000
8427 1 238.594 79.945 0.000
8428 1 239.304 78.715 0.000
8429 1 240.724 78.715 0.000
8430 1 241.434 79.945 0.000
8431 1 242.854 79.945 0.000
8432 1 243.564 78.715 0.000
8433 1 244.985 78.715 0.000
8434 1 245.695 79.945 0.000
8435 1 247.115 79.945 0.000
8436 1 247.825 78.715 0.000
8437 1 249.245 78.715 0.000
8438 1 249.955 79.945 0.000
8439 1 0.000 82.405 0.000
8440 1 0.710 81.175 0.000
8441 1 2.130 81.175 0.000
8442 1 2.840 82.405 0.000
8443 1 4.261 82.405 0.000
8444 1 4.971 81.175 0.000
8445 1 6.391 81.175 0.000
8446 1 7.101 82.405 0.000
8447 1 8.521 82.405 0.000
8448 1 9.231 81.175 0.000
8449 1 10.652 81.175 0.000
8450 1 11.362 82.405 0.000
8451 1 12.782 82.405 0.000
8452 1 13.492 81.175 0.000
8453 1 14.912 81.175 0.000
8454 1 15.622 82.405 0.000
8455 1 17.042 82.405 0.000
8456 1 17.753 81.175 0.000
8457 1 19.173 81.175 0.000
8458 1 19.883 82.405 0.000
8459 1 21.303 82.405 0.000
8460 1 22.013 81.175 0.000
8461 1 23.433 81.175 0.000
8462 1 24.143 82.405 0.000
8463 1 25.564 82.405 0.000
8464 1 26.274 81.175 0.000
8465 1 27.694 81.175 0.000
8466 1 28.404 82.405 0.000
8467 1 29.824 82.405 0.000
8468 1 30.534 81.175 0.000
8469 1 31.954 81.175 0.000
8470 1 32.665 82.405 0.000
8471 1 34.085 82.405 0.000
8472 3 34.085 82.405 -1.100
8473 1 34.795 81.175 0.000
8474 1 36.215 81.175 0.000
8475 1 36.925 82.405 0.000
8476 1 38.345 82.405 0.000
8477 1 39.055 81.175 0.000
8478 1 40.476 81.175 0.000
8479 1 41.186 82.405 0.000
8480 1 42.606 82.405 0.000
8481 1 43.316 81.175 0.000
8482 1 44.736 81.175 0.000
8483 1 45.446 82.405 0.000
8484 1 46.867 82.405 0.000
8485 1 47.577 81.175 0.000
8486 1 48.997 81.175 0.000
8487 1 49.707 82.405 0.000
8488 1 51.127 82.405 0.000
8489 1 51.837 81.175 0.000
8490 1 53.258 81.175 0.000
8491 1 53.968 82.405 0.000
8492 1 55.388 82.405 0.000
8493 1 56.098 81.175 0.000
8494 1 57.518 81.175 0.000
8495 1 58.228 82.405 0.000
8496 1 59.648 82.405 0.000
8497 1 60.358 81.175 0.000
8498 1 61.779 81.175 0.000
8499 1 62.489 82.405 0.000
8500 1 63.909 82.405 0.000
8501 1 64.619 81.175 0.000
8502 1 66.039 81.175 0.000
8503 1 66.749 82.405 0.000
8504 1 68.170 82.405 0.000
8505 1 68.880 81.175 0.000
8506 1 70.300 81.175 0.000
8507 3 70.300 81.175 -1.100
8508 1 71.010 82.405 0.000
8509 1 72.430 82.405 0.000
8510 1 73.140 81.175 0.000
8511 1 74.561 81.175 0.000
8512 1 75.271 82.405 0.000
8513 1 76.691 82.405 0.000
8514 1 77.401 81.175 0.000
8515 1 78.821 81.175 0.000
8516 1 79.531 82.405 0.000
8517 1 80.951 82.405 0.000
8518 1 81.662 81.175 0.000
8519 1 83.082 81.175 0.000
8520 1 83.792 82.405 0.000
8521 1 85.212 82.405 0.000
8522 1 85.922 81.175 0.000
8523 1 87.342 81.175 0.000
8524 1 88.052 82.405 0.000
8525 1 89.473 82.405 0.000
8526 3 89.473 82.405 1.100
8527 1 90.183 81.175 0.000
8528 1 91.603 81.175 0.000
8529 1 92.313 82.405 0.000
8530 1 93.733 82.405 0.000
8531 1 94.443 81.175 0.000
8532 2 94.443 81.175 1.500
8533 3 95.543 81.175 1.633
8534 3 93.893 82.128 1.633
8535 3 93.893 80.222 1.633
8536 1 95.864 81.175 0.000
8537 1 96.574 82.405 0.000
8538 1 97.994 82.405 0.000
8539 1 98.704 81.175 0.000
8540 1 100.124 81.175 0.000
8541 1 100.834 82.405 0.000
8542 1 102.254 82.405 0.000
8543 1 102.965 81.175 0.000
8544 1 104.385 81.175 0.000
8545 1 105.095 82.405 0.000
8546 1 106.515 82.405 0.000
8547 1 107.225 81.175 0.000
8548 1 108.645 81.175 0.000
8549 1 109.355 82.405 0.000
8550 1 110.776 82.405 0.000
8551 1 111.486 81.175 0.000
8552 1 112.906 81.175 0.000
8553 1 113.616 82.405 0.000
8554 1 115.036 82.405 0.000
8555 1 115.746 81.175 0.000
8556 1 117.167 81.175 0.000
8557 1 117.877 82.405 0.000
8558 1 119.297 82.405 0.000
8559 1 120.007 81.175 0.000
8560 1 121.427 81.175 0.000
8561 1 122.137 82.405 0.000
8562 1 123.557 82.405 0.000
8563 1 124.267 81.175 0.000
8564 1 125.688 81.175 0.000
8565 1 126.398 82.405 0.000
8566 1 127.818 82.405 0.000
8567 1 128.528 81.175 0.000
8568 1 129.948 81.175 0.000
8569 3 129.948 81.175 1.100
8570 1 130.658 82.405 0.000
8571 1 132.079 82.405 0.000
8572 1 132.789 81.175 0.000
8573 1 134.209 81.175 0.000
8574 1 134.919 82.405 0.000
8575 1 136.339 82.405 0.000
8576 1 137.049 81.175 0.000
8577 1 138.470 81.175 0.000
8578 1 139.180 82.405 0.000
8579 1 140.600 82.405 0.000
8580 1 141.310 81.175 0.000
8581 1 142.730 81.175 0.000
8582 1 143.440 82.405 0.000
8583 1 144.860 82.405 0.000
8584 1 145.571 81.175 0.000
8585 1 146.991 81.175 0.000
8586 1 147.701 82.405 0.000
8587 1 149.121 82.405 0.000
8588 1 149.831 81.175 0.000
8589 1 151.251 81.175 0.000
8590 1 151.961 82.405 0.000
8591 1 153.382 82.405 0.000
8592 1 154.092 81.175 0.000
8593 3 154.092 81.175 1.100
8594 1 155.512 81.175 0.000
8595 1 156.222 82.405 0.000
8596 1 157.642 82.405 0.000
8597 1 158.352 81.175 0.000
8598 1 159.773 81.175 0.000
8599 1 160.483 82.405 0.000
8600 1 161.903 82.405 0.000
8601 1 162.613 81.175 0.000
8602 1 164.033 81.175 0.000
8603 1 164.743 82.405 0.000
8604 1 166.163 82.405 0.000
8605 1 166.874 81.175 0.000
8606 1 168.294 81.175 0.000
8607 1 169.004 82.405 0.000
8608 1 170.424 82.405 0.000
8609 1 171.134 81.175 0.000
8610 1 172.554 81.175 0.000
8611 3 172.554 81.175 -1.100
8612 1 173.264 82.405 0.000
8613 2 173.264 82.405 1.500
8614 3 174.364 82.405 1.633
8615 3 172.164 82.405 1.633
8616 2 173.264 82.405 3.040
8617 3 174.364 82.405 3.173
8618 3 172.714 83.358 3.173
8619 3 172.714 81.452 3.173
8620 1 174.685 82.405 0.000
8621 1 175.395 81.175 0.000
8622 1 176.815 81.175 0.000
8623 1 177.525 82.405 0.000
8624 1 178.945 82.405 0.000
8625 1 179.655 81.175 0.000
8626 1 181.076 81.175 0.000
8627 1 181.786 82.405 0.000
8628 1 183.206 82.405 0.000
8629 1 183.916 81.175 0.000
8630 1 185.336 81.175 0.000
8631 1 186.046 82.405 0.000
8632 1 187.466 82.405 0.000
8633 1 188.177 81.175 0.000
8634 1 189.597 81.175 0.000
8635 1 190.307 82.405 0.000
8636 1 191.727 82.405 0.000
8637 1 192.437 81.175 0.000
8638 1 193.857 81.175 0.000
8639 1 194.567 82.405 0.000
8640 1 195.988 82.405 0.000
8641 1 196.698 81.175 0.000
8642 1 198.118 81.175 0.000
8643 1 198.828 82.405 0.000
8644 1 200.248 82.405 0.000
8645 1 200.958 81.175 0.000
8646 1 202.379 81.175 0.000
8647 1 203.089 82.405 0.000
8648 1 204.509 82.405 0.000
8649 1 205.219 81.175 0.000
8650 1 206.639 81.175 0.000
8651 1 207.349 82.405 0.000
8652 1 208.769 82.405 0.000
8653 1 209.480 81.175 0.000
8654 1 210.900 81.175 0.000
8655 1 211.610 82.405 0.000
8656 1 213.030 82.405 0.000
8657 1 213.740 81.175 0.000
8658 1 215.160 81.175 0.000
8659 1 215.870 82.405 0.000
8660 1 217.291 82.405 0.000
8661 1 218.001 81.175 0.000
8662 1 219.421 81.175 0.000
8663 1 220.131 82.405 0.000
8664 1 221.551 82.405 0.000
8665 1 222.261 81.175 0.000
8666 1 223.681 81.175 0.000
8667 1 224.392 82.405 0.000
8668 1 225.812 82.405 0.000
8669 1 226.522 81.175 0.000
8670 1 227.942 81.175 0.000
8671 1 228.652 82.405 0.000
8672 1 230.072 82.405 0.000
8673 1 230.783 81.175 0.000
8674 1 232.203 81.175 0.000
8675 2 232.203 81.175 1.500
8676 3 233.303 81.175 1.633
8677 3 231.653 82.128 1.633
8678 3 231.653 80.222 1.633
8679 1 232.913 82.405 0.000
8680 1 234.333 82.405 0.000
8681 1 235.043 81.175 0.000
8682 1 236.463 81.175 0.000
8683 1 237.173 82.405 0.000
8684 1 238.594 82.405 0.000
8685 1 239.304 81.175 0.000
8686 1 240.724 81.175 0.000
8687 1 241.434 82.405 0.000
8688 1 242.854 82.405 0.000
8689 1 243.564 81.175 0.000
8690 1 244.985 81.175 0.000
8691 1 245.695 82.405 0.000
8692 1 247.115 82.405 0.000
8693 1 247.825 81.175 0.000
8694 1 249.245 81.175 0.000
8695 3 249.245 81.175 -1.100
8696 1 249.955 82.405 0.000
8697 1 0.000 84.865 0.000
8698 1 0.710 83.635 0.000
8699 1 2.130 83.635 0.000
8700 1 2.840 84.865 0.000
8701 1 4.261 84.865 0.000
8702 1 4.971 83.635 0.000
8703 1 6.391 83.635 0.000
8704 1 7.101 84.865 0.000
8705 1 8.521 84.865 0.000
8706 1 9.231 83.635 0.000
8707 1 10.652 83.635 0.000
8708 1 11.362 84.865 0.000
8709 3 11.362 84.865 1.100
8710 1 12.782 84.865 0.000
8711 1 13.492 83.635 0.000
8712 1 14.912 83.635 0.000
8713 1 15.622 84.865 0.000
8714 1 17.042 84.865 0.000
8715 1 17.753 83.635 0.000
8716 1 19.173 83.635 0.000
8717 1 19.883 84.865 0.000
8718 1 21.303 84.865 0.000
8719 1 22.013 83.635 0.000
8720 1 23.433 83.635 0.000
8721 1 24.143 84.865 0.000
8722 2 24.143 84.865 1.500
8723 3 25.243 84.865 1.633
8724 3 23.593 85.818 1.633
8725 3 23.593 83.912 1.633
8726 1 25.564 84.865 0.000
8727 1 26.274 83.635 0.000
8728 1 27.694 83.635 0.000
8729 1 28.404 84.865 0.000
8730 1 29.824 84.865 0.000
8731 1 30.534 83.635 0.000
8732 1 31.954 83.635 0.000
8733 1 32.665 84.865 0.000
8734 1 34.085 84.865 0.000
8735 1 34.795 83.635 0.000
8736 1 36.215 83.635 0.000
8737 2 36.215 83.635 -1.500
8738 3 37.315 83.635 -1.633
8739 3 35.115 83.635 -1.633
8740 2 36.215 83.635 -3.040
8741 3 37.315 83.635 -3.173
8742 3 35.665 84.588 -3.173
8743 3 35.665 82.682 -3.173
8744 1 36.925 84.865 0.000
8745 1 38.345 84.865 0.000
8746 1 39.055 83.635 0.000
8747 1 40.476 83.635 0.000
8748 1 41.186 84.865 0.000
8749 1 42.606 84.865 0.000
8750 1 43.316 83.635 0.000
8751 1 44.736 83.635 0.000
8752 1 45.446 84.865 0.000
8753 1 46.867 84.865 0.000
8754 1 47.577 83.635 0.000
8755 1 48.997 83.635 0.000
8756 1 49.707 84.865 0.000
8757 1 51.127 84.865 0.000
8758 1 51.837 83.635 0.000
8759 1 53.258 83.635 0.000
8760 1 53.968 84.865 0.000
8761 1 55.388 84.865 0.000
8762 1 56.098 83.635 0.000
8763 1 57.518 83.635 0.000
8764 1 58.228 84.865 0.000
8765 1 59.648 84.865 0.000
8766 1 60.358 83.635 0.000
8767 1 61.779 83.635 0.000
8768 1 62.489 84.865 0.000
8769 1 63.909 84.865 0.000
8770 1 64.619 83.635 0.000
8771 1 66.039 83.635 0.000
8772 1 66.749 84.865 0.000
8773 1 68.170 84.865 0.000
8774 2 68.170 84.865 1.500
8775 3 69.270 84.865 1.633
8776 3 67.620 85.818 1.633
8777 3 67.620 83.912 1.633
8778 1 68.880 83.635 0.000
8779 1 70.300 83.635 0.000
8780 1 71.010 84.865 0.000
8781 1 72.430 84.865 0.000
8782 1 73.140 83.635 0.000
8783 1 74.561 83.635 0.000
8784 1 75.271 84.865 0.000
8785 1 76.691 84.865 0.000
8786 1 77.401 83.635 0.000
8787 1 78.821 83.635 0.000
8788 1 79.531 84.865 0.000
8789 1 80.951 84.865 0.000
8790 1 81.662 83.635 0.000
8791 1 83.082 83.635 0.000
8792 1 83.792 84.865 0.000
8793 3 83.792 84.865 1.100
8794 1 85.212 84.865 0.000
8795 1 85.922 83.635 0.000
8796 1 87.342 83.635 0.000
8797 1 88.052 84.865 0.000
8798 1 89.473 84.865 0.000
8799 1 90.183 83.635 0.000
8800 1 91.603 83.635 0.000
8801 1 92.313 84.865 0.000
8802 1 93.733 84.865 0.000
8803 1 94.443 83.635 0.000
8804 1 95.864 83.635 0.000
8805 1 96.574 84.865 0.000
8806 1 97.994 84.865 0.000
8807 1 98.704 83.635 0.000
8808 1 100.124 83.635 0.000
8809 1 100.834 84.865 0.000
8810 1 102.254 84.865 0.000
8811 1 102.965 83.635 0.000
8812 1 104.385 83.635 0.000
8813 2 104.385 83.635 1.500
8814 3 105.485 83.635 1.633
8815 3 103.285 83.635 1.633
8816 2 104.385 83.635 3.040
8817 3 105.485 83.635 3.173
8818 3 103.835 84.588 3.173
8819 3 103.835 82.682 3.173
8820 1 105.095 84.865 0.000
8821 1 106.515 84.865 0.000
8822 1 107.225 83.635 0.000
8823 1 108.645 83.635 0.000
8824 1 109.355 84.865 0.000
8825 1 110.776 84.865 0.000
8826 1 111.486 83.635 0.000
8827 1 112.906 83.635 0.000
8828 1 113.616 84.865 0.000
8829 1 115.036 84.865 0.000
8830 1 115.746 83.635 0.000
8831 1 117.167 83.635 0.000
8832 1 117.877 84.865 0.000
8833 1 119.297 84.865 0.000
8834 1 120.007 83.635 0.000
8835 1 121.427 83.635 0.000
8836 3 121.427 83.635 1.100
8837 1 122.137 84.865 0.000
8838 1 123.557 84.865 0.000
8839 1 124.267 83.635 0.000
8840 1 125.688 83.635 0.000
8841 1 126.398 84.865 0.000
8842 1 127.818 84.865 0.000
8843 1 128.528 83.635 0.000
8844 1 129.948 83.635 0.000
8845 1 130.658 84.865 0.000
8846 1 132.079 84.865 0.000
8847 1 132.789 83.635 0.000
8848 1 134.209 83.635 0.000
8849 1 134.919 84.865 0.000
8850 1 136.339 84.865 0.000
8851 1 137.049 83.635 0.000
8852 1 138.470 83.635 0.000
8853 1 139.180 84.865 0.000
8854 1 140.600 84.865 0.000
8855 1 141.310 83.635 0.000
8856 1 142.730 83.635 0.000
8857 1 143.440 84.865 0.000
8858 1 144.860 84.865 0.000
8859 1 145.571 83.635 0.000
8860 1 146.991 83.635 0.000
8861 1 147.701 84.865 0.000
8862 1 149.121 84.865 0.000
8863 1 149.831 83.635 0.000
8864 1 151.251 83.635 0.000
8865 1 151.961 84.865 0.000
8866 1 153.382 84.865 0.000
8867 1 154.092 83.635 0.000
8868 1 155.512 83.635 0.000
8869 1 156.222 84.865 0.000
8870 1 157.642 84.865 0.000
8871 1 158.352 83.635 0.000
8872 1 159.773 83.635 0.000
8873 3 159.773 83.635 -1.100
8874 1 160.483 84.865 0.000
8875 1 161.903 84.865 0.000
8876 1 162.613 83.635 0.000
8877 1 164.033 83.635 0.000
8878 1 164.743 84.865 0.000
8879 1 166.163 84.865 0.000
8880 1 166.874 83.635 0.000
8881 1 168.294 83.635 0.000
8882 1 169.004 84.865 0.000
8883 1 170.424 84.865 0.000
8884 3 170.424 84.865 -1.100
8885 1 171.134 83.635 0.000
8886 1 172.554 83.635 0.000
8887 1 173.264 84.865 0.000
8888 1 174.685 84.865 0.000
8889 1 175.395 83.635 0.000
8890 1 176.815 83.635 0.000
8891 1 177.525 84.865 0.000
8892 1 178.945 84.865 0.000
8893 1 179.655 83.635 0.000
8894 1 181.076 83.635 0.000
8895 1 181.786 84.865 0.000
8896 1 183.206 84.865 0.000
8897 1 183.916 83.635 0.000
8898 1 185.336 83.635 0.000
8899 1 186.046 84.865 0.000
8900 1 187.466 84.865 0.000
8901 1 188.177 83.635 0.000
8902 1 189.597 83.635 0.000
8903 1 190.307 84.865 0.000
8904 1 191.727 84.865 0.000
8905 1 192.437 83.635 0.000
8906 1 193.857 83.635 0.000
8907 1 194.567 84.865 0.000
8908 1 195.988 84.865 0.000
8909 1 196.698 83.635 0.000
8910 1 198.118 83.635 0.000
8911 1 198.828 84.865 0.000
8912 1 200.248 84.865 0.000
8913 1 200.958 83.635 0.000
8914 1 202.379 83.635 0.000
8915 1 203.089 84.865 0.000
8916 1 204.509 84.865 0.000
8917 1 205.219 83.635 0.000
8918 1 206.639 83.635 0.000
8919 1 207.349 84.865 0.000
8920 1 208.769 84.865 0.000
8921 1 209.480 83.635 0.000
8922 2 209.480 83.635 -1.500
8923 3 210.580 83.635 -1.633
8924 3 208.380 83.635 -1.633
8925 2 209.480 83.635 -3.040
8926 3 210.580 83.635 -3.173
8927 3 208.930 84.588 -3.173
8928 3 208.930 82.682 -3.173
8929 1 210.900 83.635 0.000
8930 1 211.610 84.865 0.000
8931 1 213.030 84.865 0.000
8932 1 213.740 83.635 0.000
8933 1 215.160 83.635 0.000
8934 1 215.870 84.865 0.000
8935 1 217.291 84.865 0.000
8936 1 218.001 83.635 0.000
8937 1 219.421 83.635 0.000
8938 1 220.131 84.865 0.000
8939 1 221.551 84.865 0.000
8940 3 221.551 84.865 1.100
8941 1 222.261 83.635 0.000
8942 1 223.681 83.635 0.000
8943 1 224.392 84.865 0.000
8944 1 225.812 84.865 0.000
8945 1 226.522 83.635 0.000
8946 1 227.942 83.635 0.000
8947 1 228.652 84.865 0.000
8948 1 230.072 84.865 0.000
8949 1 230.783 83.635 0.000
8950 1 232.203 83.635 0.000
8951 1 232.913 84.865 0.000
8952 1 234.333 84.865 0.000
8953 1 235.043 83.635 0.000
8954 1 236.463 83.635 0.000
8955 1 237.173 84.865 0.000
8956 1 238.594 84.865 0.000
8957 1 239.304 83.635 0.000
8958 1 240.724 83.635 0.000
8959 1 241.434 84.865 0.000
8960 2 241.434 84.865 -1.500
8961 3 242.534 84.865 -1.633
8962 3 240.334 84.865 -1.633
8963 2 241.434 84.865 -3.040
8964 3 242.534 84.865 -3.173
8965 3 240.884 85.818 -3.173
8966 3 240.884 83.912 -3.173
8967 1 242.854 84.865 0.000
8968 1 243.564 83.635 0.000
8969 1 244.985 83.635 0.000
8970 1 245.695 84.865 0.000
8971 1 247.115 84.865 0.000
8972 1 247.825 83.635 0.000
8973 1 249.245 83.635 0.000
8974 1 249.955 84.865 0.000
8975 1 0.000 87.325 0.000
8976 1 0.710 86.095 0.000
8977 1 2.130 86.095 0.000
8978 1 2.840 87.325 0.000
8979 1 4.261 87.325 0.000
8980 1 4.971 86.095 0.000
8981 1 6.391 86.095 0.000
8982 1 7.101 87.325 0.000
8983 1 8.521 87.325 0.000
8984 3 8.521 87.325 1.100
8985 1 9.231 86.095 0.000
8986 1 10.652 86.095 0.000
8987 1 11.362 87.325 0.000
8988 1 12.782 87.325 0.000
8989 1 13.492 86.095 0.000
8990 1 14.912 86.095 0.000
8991 1 15.622 87.325 0.000
8992 1 17.042 87.325 0.000
8993 1 17.753 86.095 0.000
8994 1 19.173 86.095 0.000
8995 2 19.173 86.095 1.500
8996 3 20.273 86.095 1.633
8997 3 18.623 87.048 1.633
8998 3 18.623 85.142 1.633
8999 1 19.883 87.325 0.000
9000 1 21.303 87.325 0.000
9001 1 22.013 86.095 0.000
9002 1 23.433 86.095 0.000
9003 1 24.143 87.325 0.000
9004 1 25.564 87.325 0.000
9005 1 26.274 86.095 0.000
9006 1 27.694 86.095 0.000
9007 1 28.404 87.325 0.000
9008 1 29.824 87.325 0.000
9009 1 30.534 86.095 0.000
9010 1 31.954 86.095 0.000
9011 1 32.665 87.325 0.000
9012 1 34.085 87.325 0.000
9013 1 34.795 86.095 0.000
9014 1 36.215 86.095 0.000
9015 1 36.925 87.325 0.000
9016 1 38.345 87.325 0.000
9017 1 39.055 86.095 0.000
9018 1 40.476 86.095 0.000
9019 1 41.186 87.325 0.000
9020 1 42.606 87.325 0.000
9021 1 43.316 86.095 0.000
9022 1 44.736 86.095 0.000
9023 1 45.446 87.325 0.000
9024 1 46.867 87.325 0.000
9025 1 47.577 86.095 0.000
9026 1 48.997 86.095 0.000
9027 1 49.707 87.325 0.000
9028 1 51.127 87.325 0.000
9029 1 51.837 86.095 0.000
9030 3 51.837 86.095 -1.100
9031 1 53.258 86.095 0.000
9032 1 53.968 87.325 0.000
9033 1 55.388 87.325 0.000
9034 1 56.098 86.095 0.000
9035 1 57.518 86.095 0.000
9036 1 58.228 87.325 0.000
9037 1 59.648 87.325 0.000
9038 1 60.358 86.095 0.000
9039 1 61.779 86.095 0.000
9040 1 62.489 87.325 0.000
9041 1 63.909 87.325 0.000
9042 1 64.619 86.095 0.000
9043 1 66.039 86.095 0.000
9044 1 66.749 87.325 0.000
9045 1 68.170 87.325 0.000
9046 3 68.170 87.325 -1.100
9047 1 68.880 86.095 0.000
9048 1 70.300 86.095 0.000
9049 1 71.010 87.325 0.000
9050 1 72.430 87.325 0.000
9051 1 73.140 86.095 0.000
9052 1 74.561 86.095 0.000
9053 3 74.561 86.095 -1.100
9054 1 75.271 87.325 0.000
9055 1 76.691 87.325 0.000
9056 1 77.401 86.095 0.000
9057 1 78.821 86.095 0.000
9058 1 79.531 87.325 0.000
9059 1 80.951 87.325 0.000
9060 1 81.662 86.095 0.000
9061 1 83.082 86.095 0.000
9062 1 83.792 87.325 0.000
9063 1 85.212 87.325 0.000
9064 1 85.922 86.095 0.000
9065 1 87.342 86.095 0.000
9066 1 88.052 87.325 0.000
9067 1 89.473 87.325 0.000
9068 1 90.183 86.095 0.000
9069 1 91.603 86.095 0.000
9070 1 92.313 87.325 0.000
9071 1 93.733 87.325 0.000
9072 1 94.443 86.095 0.000
9073 1 95.864 86.095 0.000
9074 1 96.574 87.325 0.000
9075 1 97.994 87.325 0.000
9076 1 98.704 86.095 0.000
9077 1 100.124 86.095 0.000
9078 1 100.834 87.325 0.000
9079 1 102.254 87.325 0.000
9080 1 102.965 86.095 0.000
9081 1 104.385 86.095 0.000
9082 1 105.095 87.325 0.000
9083 1 106.515 87.325 0.000
9084 1 107.225 86.095 0.000
9085 1 108.645 86.095 0.000
9086 1 109.355 87.325 0.000
9087 1 110.776 87.325 0.000
9088 1 111.486 86.095 0.000
9089 1 112.906 86.095 0.000
9090 1 113.616 87.325 0.000
9091 1 115.036 87.325 0.000
9092 1 115.746 86.095 0.000
9093 1 117.167 86.095 0.000
9094 1 117.877 87.325 0.000
9095 1 119.297 87.325 0.000
9096 1 120.007 86.095 0.000
9097 1 121.427 86.095 0.000
9098 1 122.137 87.325 0.000
9099 1 123.557 87.325 0.000
9100 1 124.267 86.095 0.000
9101 1 125.688 86.095 0.000
9102 1 126.398 87.325 0.000
9103 1 127.818 87.325 0.000
9104 1 128.528 86.095 0.000
9105 1 129.948 86.095 0.000
9106 1 130.658 87.325 0.000
9107 1 132.079 87.325 0.000
9108 1 132.789 86.095 0.000
9109 1 134.209 86.095 0.000
9110 1 134.919 87.325 0.000
9111 1 136.339 87.325 0.000
9112 1 137.049 86.095 0.000
9113 1 138.470 86.095 0.000
9114 1 139.180 87.325 0.000
9115 1 140.600 87.325 0.000
9116 1 141.310 86.095 0.000
9117 1 142.730 86.095 0.000
9118 1 143.440 87.325 0.000
9119 1 144.860 87.325 0.000
9120 1 145.571 86.095 0.000
9121 1 146.991 86.095 0.000
9122 1 147.701 87.325 0.000
9123 1 149.121 87.325 0.000
9124 1 149.831 86.095 0.000
9125 1 151.251 86.095 0.000
9126 1 151.961 87.325 0.000
9127 1 153.382 87.325 0.000
9128 1 154.092 86.095 0.000
9129 1 155.512 86.095 0.000
9130 1 156.222 87.325 0.000
9131 1 157.642 87.325 0.000
9132 1 158.352 86.095 0.000
9133 1 159.773 86.095 0.000
9134 1 160.483 87.325 0.000
9135 1 161.903 87.325 0.000
9136 1 162.613 86.095 0.000
9137 1 164.033 86.095 0.000
9138 1 164.743 87.325 0.000
9139 1 166.163 87.325 0.000
9140 1 166.874 86.095 0.000
9141 1 168.294 86.095 0.000
9142 1 169.004 87.325 0.000
9143 1 170.424 87.325 0.000
9144 1 171.134 86.095 0.000
9145 1 172.554 86.095 0.000
9146 1 173.264 87.325 0.000
9147 1 174.685 87.325 0.000
9148 1 175.395 86.095 0.000
9149 1 176.815 86.095 0.000
9150 1 177.525 87.325 0.000
9151 1 178.945 87.325 0.000
9152 1 179.655 86.095 0.000
9153 1 181.076 86.095 0.000
9154 1 181.786 87.325 0.000
9155 1 183.206 87.325 0.000
9156 1 183.916 86.095 0.000
9157 1 185.336 86.095 0.000
9158 1 186.046 87.325 0.000
9159 1 187.466 87.325 0.000
9160 3 187.466 87.325 -1.100
9161 1 188.177 86.095 0.000
9162 1 189.597 86.095 0.000
9163 1 190.307 87.325 0.000
9164 1 191.727 87.325 0.000
9165 1 192.437 86.095 0.000
9166 1 193.857 86.095 0.000
9167 1 194.567 87.325 0.000
9168 1 195.988 87.325 0.000
9169 1 196.698 86.095 0.000
9170 1 198.118 86.095 0.000
9171 1 198.828 87.325 0.000
9172 1 200.248 87.325 0.000
9173 1 200.958 86.095 0.000
9174 1 202.379 86.095 0.000
9175 1 203.089 87.325 0.000
9176 1 204.509 87.325 0.000
9177 1 205.219 86.095 0.000
9178 1 206.639 86.095 0.000
9179 1 207.349 87.325 0.000
9180 1 208.769 87.325 0.000
9181 1 209.480 86.095 0.000
9182 1 210.900 86.095 0.000
9183 1 211.610 87.325 0.000
9184 1 213.030 87.325 0.000
9185 1 213.740 86.095 0.000
9186 1 215.160 86.095 0.000
9187 1 215.870 87.325 0.000
9188 1 217.291 87.325 0.000
9189 1 218.001 86.095 0.000
9190 2 218.001 86.095 1.500
9191 3 219.101 86.095 1.633
9192 3 216.901 86.095 1.633
9193 2 218.001 86.095 3.040
9194 3 219.101 86.095 3.173
9195 3 217.451 87.048 3.173
9196 3 217.451 85.142 3.173
9197 1 219.421 86.095 0.000
9198 1 220.131 87.325 0.000
9199 1 221.551 87.325 0.000
9200 1 222.261 86.095 0.000
9201 1 223.681 86.095 0.000
9202 1 224.392 87.325 0.000
9203 1 225.812 87.325 0.000
9204 1 226.522 86.095 0.000
9205 1 227.942 86.095 0.000
9206 1 228.652 87.325 0.000
9207 1 230.072 87.325 0.000
9208 1 230.783 86.095 0.000
9209 1 232.203 86.095 0.000
9210 1 232.913 87.325 0.000
9211 1 234.333 87.325 0.000
9212 1 235.043 86.095 0.000
9213 1 236.463 86.095 0.000
9214 1 237.173 87.325 0.000
9215 2 237.173 87.325 1.500
9216 3 238.273 87.325 1.633
9217 3 236.073 87.325 1.633
9218 2 237.173 87.325 3.040
9219 3 238.273 87.325 3.173
9220 3 236.623 88.278 3.173
9221 3 236.623 86.372 3.173
9222 1 238.594 87.325 0.000
9223 1 239.304 86.095 0.000
9224 1 240.724 86.095 0.000
9225 1 241.434 87.325 0.000
9226 1 242.854 87.325 0.000
9227 1 243.564 86.095 0.000
9228 1 244.985 86.095 0.000
9229 1 245.695 87.325 0.000
9230 1 247.115 87.325 0.000
9231 1 247.825 86.095 0.000
9232 1 249.245 86.095 0.000
9233 1 249.955 87.325 0.000
9234 1 0.000 89.785 0.000
9235 1 0.710 88.555 0.000
9236 1 2.130 88.555 0.000
9237 1 2.840 89.785 0.000
9238 1 4.261 89.785 0.000
9239 1 4.971 88.555 0.000
9240 1 6.391 88.555 0.000
9241 1 7.101 89.785 0.000
9242 1 8.521 89.785 0.000
9243 1 9.231 88.555 0.000
9244 1 10.652 88.555 0.000
9245 1 11.362 89.785 0.000
9246 1 12.782 89.785 0.000
9247 1 13.492 88.555 0.000
9248 1 14.912 88.555 0.000
9249 1 15.622 89.785 0.000
9250 1 17.042 89.785 0.000
9251 1 17.753 88.555 0.000
9252 1 19.173 88.555 0.000
9253 1 19.883 89.785 0.000
9254 1 21.303 89.785 0.000
9255 1 22.013 88.555 0.000
9256 1 23.433 88.555 0.000
9257 1 24.143 89.785 0.000
9258 1 25.564 89.785 0.000
9259 1 26.274 88.555 0.000
9260 1 27.694 88.555 0.000
9261 1 28.404 89.785 0.000
9262 3 28.404 89.785 1.100
9263 1 29.824 89.785 0.000
9264 1 30.534 88.555 0.000
9265 1 31.954 88.555 0.000
9266 1 32.665 89.785 0.000
9267 1 34.085 89.785 0.000
9268 1 34.795 88.555 0.000
9269 1 36.215 88.555 0.000
9270 1 36.925 89.785 0.000
9271 1 38.345 89.785 0.000
9272 1 39.055 88.555 0.000
9273 1 40.476 88.555 0.000
9274 1 41.186 89.785 0.000
9275 1 42.606 89.785 0.000
9276 1 43.316 88.555 0.000
9277 1 44.736 88.555 0.000
9278 1 45.446 89.785 0.000
9279 1 46.867 89.785 0.000
9280 1 47.577 88.555 0.000
9281 1 48.997 88.555 0.000
9282 3 48.997 88.555 -1.100
9283 1 49.707 89.785 0.000
9284 1 51.127 89.785 0.000
9285 1 51.837 88.555 0.000
9286 1 53.258 88.555 0.000
9287 1 53.968 89.785 0.000
9288 1 55.388 89.785 0.000
9289 3 55.388 89.785 -1.100
9290 1 56.098 88.555 0.000
9291 1 57.518 88.555 0.000
9292 1 58.228 89.785 0.000
9293 1 59.648 89.785 0.000
9294 1 60.358 88.555 0.000
9295 1 61.779 88.555 0.000
9296 1 62.489 89.785 0.000
9297 1 63.909 89.785 0.000
9298 1 64.619 88.555 0.000
9299 1 66.039 88.555 0.000
9300 1 66.749 89.785 0.000
9301 1 68.170 89.785 0.000
9302 1 68.880 88.555 0.000
9303 1 70.300 88.555 0.000
9304 1 71.010 89.785 0.000
9305 1 72.430 89.785 0.000
9306 1 73.140 88.555 0.000
9307 1 74.561 88.555 0.000
9308 1 75.271 89.785 0.000
9309 1 76.691 89.785 0.000
9310 1 77.401 88.555 0.000
9311 1 78.821 88.555 0.000
9312 1 79.531 89.785 0.000
9313 3 79.531 89.785 1.100
9314 1 80.951 89.785 0.000
9315 1 81.662 88.555 0.000
9316 2 81.662 88.555 1.500
9317 3 82.762 88.555 1.633
9318 3 81.112 89.508 1.633
9319 3 81.112 87.602 1.633
9320 1 83.082 88.555 0.000
9321 1 83.792 89.785 0.000
9322 1 85.212 89.785 0.000
9323 1 85.922 88.555 0.000
9324 1 87.342 88.555 0.000
9325 1 88.052 89.785 0.000
9326 1 89.473 89.785 0.000
9327 1 90.183 88.555 0.000
9328 1 91.603 88.555 0.000
9329 1 92.313 89.785 0.000
9330 1 93.733 89.785 0.000
9331 1 94.443 88.555 0.000
9332 1 95.864 88.555 0.000
9333 1 96.574 89.785 0.000
9334 1 97.994 89.785 0.000
9335 1 98.704 88.555 0.000
9336 1 100.124 88.555 0.000
9337 1 100.834 89.785 0.000
9338 1 102.254 89.785 0.000
9339 1 102.965 88.555 0.000
9340 1 104.385 88.555 0.000
9341 1 105.095 89.785 0.000
9342 1 106.515 89.785 0.000
9343 1 107.225 88.555 0.000
9344 1 108.645 88.555 0.000
9345 1 109.355 89.785 0.000
9346 1 110.776 89.785 0.000
9347 1 111.486 88.555 0.000
9348 1 112.906 88.555 0.000
9349 1 113.616 89.785 0.000
9350 1 115.036 89.785 0.000
9351 1 115.746 88.555 0.000
9352 1 117.167 88.555 0.000
9353 1 117.877 89.785 0.000
9354 1 119.297 89.785 0.000
9355 1 120.007 88.555 0.000
9356 1 121.427 88.555 0.000
9357 1 122.137 89.785 0.000
9358 1 123.557 89.785 0.000
9359 1 124.267 88.555 0.000
9360 1 125.688 88.555 0.000
9361 1 126.398 89.785 0.000
9362 1 127.818 89.785 0.000
9363 1 128.528 88.555 0.000
9364 1 129.948 88.555 0.000
9365 1 130.658 89.785 0.000
9366 1 132.079 89.785 0.000
9367 1 132.789 88.555 0.000
9368 1 134.209 88.555 0.000
9369 1 134.919 89.785 0.000
9370 1 136.339 89.785 0.000
9371 1 137.049 88.555 0.000
9372 1 138.470 88.555 0.000
9373 1 139.180 89.785 0.000
9374 1 140.600 89.785 0.000
9375 1 141.310 88.555 0.000
9376 1 142.730 88.555 0.000
9377 1 143.440 89.785 0.000
9378 1 144.860 89.785 0.000
9379 1 145.571 88.555 0.000
9380 1 146.991 88.555 0.000
9381 1 147.701 89.785 0.000
9382 1 149.121 89.785 0.000
9383 1 149.831 88.555 0.000
9384 1 151.251 88.555 0.000
9385 1 151.961 89.785 0.000
9386 1 153.382 89.785 0.000
9387 1 154.092 88.555 0.000
9388 1 155.512 88.555 0.000
9389 1 156.222 89.785 0.000
9390 1 157.642 89.785 0.000
9391 1 158.352 88.555 0.000
9392 1 159.773 88.555 0.000
9393 1 160.483 89.785 0.000
9394 1 161.903 89.785 0.000
9395 1 162.613 88.555 0.000
9396 1 164.033 88.555 0.000
9397 1 164.743 89.785 0.000
9398 1 166.163 89.785 0.000
9399 1 166.874 88.555 0.000
9400 1 168.294 88.555 0.000
9401 1 169.004 89.785 0.000
9402 1 170.424 89.785 0.000
9403 1 171.134 88.555 0.000
9404 1 172.554 88.555 0.000
9405 1 173.264 89.785 0.000
9406 1 174.685 89.785 0.000
9407 1 175.395 88.555 0.000
9408 1 176.815 88.555 0.000
9409 1 177.525 89.785 0.000
9410 1 178.945 89.785 0.000
9411 1 179.655 88.555 0.000
9412 1 181.076 88.555 0.000
9413 1 181.786 89.785 0.000
9414 1 183.206 89.785 0.000
9415 1 183.916 88.555 0.000
9416 1 185.336 88.555 0.000
9417 1 186.046 89.785 0.000
9418 1 187.466 89.785 0.000
9419 1 188.177 88.555 0.000
9420 1 189.597 88.555 0.000
9421 1 190.307 89.785 0.000
9422 1 191.727 89.785 0.000
9423 1 192.437 88.555 0.000
9424 1 193.857 88.555 0.000
9425 3 193.857 88.555 1.100
9426 1 194.567 89.785 0.000
9427 1 195.988 89.785 0.000
9428 1 196.698 88.555 0.000
9429 1 198.118 88.555 0.000
9430 1 198.828 89.785 0.000
9431 1 200.248 89.785 0.000
9432 1 200.958 88.555 0.000
9433 1 202.379 88.555 0.000
9434 1 203.089 89.785 0.000
9435 1 204.509 89.785 0.000
9436 3 204.509 89.785 -1.100
9437 1 205.219 88.555 0.000
9438 1 206.639 88.555 0.000
9439 1 207.349 89.785 0.000
9440 1 208.769 89.785 0.000
9441 1 209.480 88.555 0.000
9442 1 210.900 88.555 0.000
9443 3 210.900 88.555 -1.100
9444 1 211.610 89.785 0.000
9445 1 213.030 89.785 0.000
9446 1 213.740 88.555 0.000
9447 1 215.160 88.555 0.000
9448 1 215.870 89.785 0.000
9449 1 217.291 89.785 0.000
9450 1 218.001 88.555 0.000
9451 1 219.421 88.555 0.000
9452 1 220.131 89.785 0.000
9453 1 221.551 89.785 0.000
9454 1 222.261 88.555 0.000
9455 1 223.681 88.555 0.000
9456 1 224.392 89.785 0.000
9457 1 225.812 89.785 0.000
9458 1 226.522 88.555 0.000
9459 1 227.942 88.555 0.000
9460 1 228.652 89.785 0.000
9461 1 230.072 89.785 0.000
9462 1 230.783 88.555 0.000
9463 1 232.203 88.555 0.000
9464 1 232.913 89.785 0.000
9465 1 234.333 89.785 0.000
9466 1 235.043 88.555 0.000
9467 1 236.463 88.555 0.000
9468 1 237.173 89.785 0.000
9469 1 238.594 89.785 0.000
9470 1 239.304 88.555 0.000
9471 1 240.724 88.555 0.000
9472 1 241.434 89.785 0.000
9473 3 241.434 89.785 1.100
9474 1 242.854 89.785 0.000
9475 1 243.564 88.555 0.000
9476 1 244.985 88.555 0.000
9477 1 245.695 89.785 0.000
9478 1 247.115 89.785 0.000
9479 1 247.825 88.555 0.000
9480 1 249.245 88.555 0.000
9481 1 249.955 89.785 0.000
9482 1 0.000 92.245 0.000
9483 1 0.710 91.015 0.000
9484 1 2.130 91.015 0.000
9485 1 2.840 92.245 0.000
9486 1 4.261 92.245 0.000
9487 1 4.971 91.015 0.000
9488 1 6.391 91.015 0.000
9489 1 7.101 92.245 0.000
9490 1 8.521 92.245 0.000
9491 1 9.231 91.015 0.000
9492 1 10.652 91.015 0.000
9493 1 11.362 92.245 0.000
9494 1 12.782 92.245 0.000
9495 1 13.492 91.015 0.000
9496 1 14.912 91.015 0.000
9497 1 15.622 92.245 0.000
9498 1 17.042 92.245 0.000
9499 1 17.753 91.015 0.000
9500 1 19.173 91.015 0.000
9501 1 19.883 92.245 0.000
9502 1 21.303 92.245 0.000
9503 1 22.013 91.015 0.000
9504 1 23.433 91.015 0.000
9505 1 24.143 92.245 0.000
9506 1 25.564 92.245 0.000
9507 1 26.274 91.015 0.000
9508 1 27.694 91.015 0.000
9509 1 28.404 92.245 0.000
9510 1 29.824 92.245 0.000
9511 1 30.534 91.015 0.000
9512 1 31.954 91.015 0.000
9513 1 32.665 92.245 0.000
9514 1 34.085 92.245 0.000
9515 1 34.795 91.015 0.000
9516 1 36.215 91.015 0.000
9517 1 36.925 92.245 0.000
9518 1 38.345 92.245 0.000
9519 1 39.055 91.015 0.000
9520 1 40.476 91.015 0.000
9521 1 41.186 92.245 0.000
9522 1 42.606 92.245 0.000
9523 1 43.316 91.015 0.000
9524 1 44.736 91.015 0.000
9525 1 45.446 92.245 0.000
9526 1 46.867 92.245 0.000
9527 1 47.577 91.015 0.000
9528 1 48.997 91.015 0.000
9529 1 49.707 92.245 0.000
9530 1 51.127 92.245 0.000
9531 1 51.837 91.015 0.000
9532 2 51.837 91.015 -1.500
9533 3 52.937 91.015 -1.633
9534 3 51.287 91.968 -1.633
9535 3 51.287 90.062 -1.633
9536 1 53.258 91.015 0.000
9537 1 53.968 92.245 0.000
9538 1 55.388 92.245 0.000
9539 1 56.098 91.015 0.000
9540 1 57.518 91.015 0.000
9541 1 58.228 92.245 0.000
9542 3 58.228 92.245 1.100
9543 1 59.648 92.245 0.000
9544 1 60.358 91.015 0.000
9545 1 61.779 91.015 0.000
9546 1 62.489 92.245 0.000
9547 1 63.909 92.245 0.000
9548 1 64.619 91.015 0.000
9549 1 66.039 91.015 0.000
9550 1 66.749 92.245 0.000
9551 1 68.170 92.245 0.000
9552 1 68.880 91.015 0.000
9553 1 70.300 91.015 0.000
9554 1 71.010 92.245 0.000
9555 1 72.430 92.245 0.000
9556 1 73.140 91.015 0.000
9557 1 74.561 91.015 0.000
9558 1 75.271 92.245 0.000
9559 1 76.691 92.245 0.000
9560 1 77.401 91.015 0.000
9561 1 78.821 91.015 0.000
9562 1 79.531 92.245 0.000
9563 1 80.951 92.245 0.000
9564 1 81.662 91.015 0.000
9565 1 83.082 91.015 0.000
9566 1 83.792 92.245 0.000
9567 1 85.212 92.245 0.000
9568 1 85.922 91.015 0.000
9569 1 87.342 91.015 0.000
9570 1 88.052 92.245 0.000
9571 1 89.473 92.245 0.000
9572 1 90.183 91.015 0.000
9573 1 91.603 91.015 0.000
9574 1 92.313 92.245 0.000
9575 1 93.733 92.245 0.000
9576 1 94.443 91.015 0.000
9577 1 95.864 91.015 0.000
9578 1 96.574 92.245 0.000
9579 1 97.994 92.245 0.000
9580 1 98.704 91.015 0.000
9581 1 100.124 91.015 0.000
9582 1 100.834 92.245 0.000
9583 1 102.254 92.245 0.000
9584 1 102.965 91.015 0.000
9585 1 104.385 91.015 0.000
9586 1 105.095 92.245 0.000
9587 1 106.515 92.245 0.000
9588 1 107.225 91.015 0.000
9589 1 108.645 91.015 0.000
9590 1 109.355 92.245 0.000
9591 1 110.776 92.245 0.000
9592 1 111.486 91.015 0.000
9593 1 112.906 91.015 0.000
9594 1 113.616 92.245 0.000
9595 1 115.036 92.245 0.000
9596 1 115.746 91.015 0.000
9597 1 117.167 91.015 0.000
9598 1 117.877 92.245 0.000
9599 1 119.297 92.245 0.000
9600 1 120.007 91.015 0.000
9601 1 121.427 91.015 0.000
9602 1 122.137 92.245 0.000
9603 3 122.137 92.245 -1.100
9604 1 123.557 92.245 0.000
9605 1 124.267 91.015 0.000
9606 1 125.688 91.015 0.000
9607 1 126.398 92.245 0.000
9608 1 127.818 92.245 0.000
9609 1 128.528 91.015 0.000
9610 1 129.948 91.015 0.000
9611 3 129.948 91.015 -1.100
9612 1 130.658 92.245 0.000
9613 1 132.079 92.245 0.000
9614 1 132.789 91.015 0.000
9615 1 134.209 91.015 0.000
9616 1 134.919 92.245 0.000
9617 1 136.339 92.245 0.000
9618 1 137.049 91.015 0.000
9619 1 138.470 91.015 0.000
9620 1 139.180 92.245 0.000
9621 1 140.600 92.245 0.000
9622 1 141.310 91.015 0.000
9623 1 142.730 91.015 0.000
9624 1 143.440 92.245 0.000
9625 1 144.860 92.245 0.000
9626 1 145.571 91.015 0.000
9627 1 146.991 91.015 0.000
9628 1 147.701 92.245 0.000
9629 1 149.121 92.245 0.000
9630 1 149.831 91.015 0.000
9631 1 151.251 91.015 0.000
9632 1 151.961 92.245 0.000
9633 1 153.382 92.245 0.000
9634 1 154.092 91.015 0.000
9635 1 155.512 91.015 0.000
9636 1 156.222 92.245 0.000
9637 3 156.222 92.245 -1.100
9638 1 157.642 92.245 0.000
9639 1 158.352 91.015 0.000
9640 1 159.773 91.015 0.000
9641 1 160.483 92.245 0.000
9642 1 161.903 92.245 0.000
9643 1 162.613 91.015 0.000
9644 1 164.033 91.015 0.000
9645 1 164.743 92.245 0.000
9646 1 166.163 92.245 0.000
9647 1 166.874 91.015 0.000
9648 1 168.294 91.015 0.000
9649 1 169.004 92.245 0.000
9650 1 170.424 92.245 0.000
9651 1 171.134 91.015 0.000
9652 1 172.554 91.015 0.000
9653 1 173.264 92.245 0.000
9654 1 174.685 92.245 0.000
9655 1 175.395 91.015 0.000
9656 1 176.815 91.015 0.000
9657 1 177.525 92.245 0.000
9658 1 178.945 92.245 0.000
9659 1 179.655 91.015 0.000
9660 1 181.076 91.015 0.000
9661 1 181.786 92.245 0.000
9662 1 183.206 92.245 0.000
9663 1 183.916 91.015 0.000
9664 1 185.336 91.015 0.000
9665 1 186.046 92.245 0.000
9666 1 187.466 92.245 0.000
9667 3 187.466 92.245 1.100
9668 1 188.177 91.015 0.000
9669 1 189.597 91.015 0.000
9670 1 190.307 92.245 0.000
9671 1 191.727 92.245 0.000
9672 1 192.437 91.015 0.000
9673 1 193.857 91.015 0.000
9674 1 194.567 92.245 0.000
9675 1 195.988 92.245 0.000
9676 1 196.698 91.015 0.000
9677 1 198.118 91.015 0.000
9678 1 198.828 92.245 0.000
9679 1 200.248 92.245 0.000
9680 1 200.958 91.015 0.000
9681 1 202.379 91.015 0.000
9682 1 203.089 92.245 0.000
9683 1 204.509 92.245 0.000
9684 1 205.219 91.015 0.000
9685 1 206.639 91.015 0.000
9686 1 207.349 92.245 0.000
9687 1 208.769 92.245 0.000
9688 1 209.480 91.015 0.000
9689 1 210.900 91.015 0.000
9690 3 210.900 91.015 -1.100
9691 1 211.610 92.245 0.000
9692 1 213.030 92.245 0.000
9693 1 213.740 91.015 0.000
9694 1 215.160 91.015 0.000
9695 1 215.870 92.245 0.000
9696 1 217.291 92.245 0.000
9697 1 218.001 91.015 0.000
9698 1 219.421 91.015 0.000
9699 1 220.131 92.245 0.000
9700 1 221.551 92.245 0.000
9701 1 222.261 91.015 0.000
9702 1 223.681 91.015 0.000
9703 1 224.392 92.245 0.000
9704 1 225.812 92.245 0.000
9705 1 226.522 91.015 0.000
9706 1 227.942 91.015 0.000
9707 1 228.652 92.245 0.000
9708 1 230.072 92.245 0.000
9709 1 230.783 91.015 0.000
9710 1 232.203 91.015 0.000
9711 1 232.913 92.245 0.000
9712 1 234.333 92.245 0.000
9713 1 235.043 91.015 0.000
9714 1 236.463 91.015 0.000
9715 1 237.173 92.245 0.000
9716 1 238.594 92.245 0.000
9717 1 239.304 91.015 0.000
9718 1 240.724 91.015 0.000
9719 1 241.434 92.245 0.000
9720 1 242.854 92.245 0.000
9721 1 243.564 91.015 0.000
9722 1 244.985 91.015 0.000
9723 1 245.695 92.245 0.000
9724 1 247.115 92.245 0.000
9725 1 247.825 91.015 0.000
9726 1 249.245 91.015 0.000
9727 1 249.955 92.245 0.000
9728 1 0.000 94.705 0.000
9729 1 0.710 93.475 0.000
9730 1 2.130 93.475 0.000
9731 1 2.840 94.705 0.000
9732 1 4.261 94.705 0.000
9733 2 4.261 94.705 -1.500
9734 3 5.361 94.705 -1.633
9735 3 3.711 95.658 -1.633
9736 3 3.711 93.752 -1.633
9737 1 4.971 93.475 0.000
9738 1 6.391 93.475 0.000
9739 1 7.101 94.705 0.000
9740 1 8.521 94.705 0.000
9741 1 9.231 93.475 0.000
9742 1 10.652 93.475 0.000
9743 1 11.362 94.705 0.000
9744 1 12.782 94.705 0.000
9745 1 13.492 93.475 0.000
9746 1 14.912 93.475 0.000
9747 1 15.622 94.705 0.000
9748 1 17.042 94.705 0.000
9749 1 17.753 93.475 0.000
9750 1 19.173 93.475 0.000
9751 1 19.883 94.705 0.000
9752 1 21.303 94.705 0.000
9753 1 22.013 93.475 0.000
9754 1 23.433 93.475 0.000
9755 1 24.143 94.705 0.000
9756 1 25.564 94.705 0.000
9757 1 26.274 93.475 0.000
9758 1 27.694 93.475 0.000
9759 1 28.404 94.705 0.000
9760 1 29.824 94.705 0.000
9761 1 30.534 93.475 0.000
9762 1 31.954 93.475 0.000
9763 1 32.665 94.705 0.000
9764 1 34.085 94.705 0.000
9765 1 34.795 93.475 0.000
9766 1 36.215 93.475 0.000
9767 1 36.925 94.705 0.000
9768 1 38.345 94.705 0.000
9769 1 39.055 93.475 0.000
9770 1 40.476 93.475 0.000
9771 1 41.186 94.705 0.000
9772 1 42.606 94.705 0.000
9773 1 43.316 93.475 0.000
9774 3 43.316 93.475 -1.100
9775 1 44.736 93.475 0.000
9776 1 45.446 94.705 0.000
9777 1 46.867 94.705 0.000
9778 1 47.577 93.475 0.000
9779 1 48.997 93.475 0.000
9780 1 49.707 94.705 0.000
9781 1 51.127 94.705 0.000
9782 1 51.837 93.475 0.000
9783 1 53.258 93.475 0.000
9784 1 53.968 94.705 0.000
9785 1 55.388 94.705 0.000
9786 1 56.098 93.475 0.000
9787 1 57.518 93.475 0.000
9788 1 58.228 94.705 0.000
9789 1 59.648 94.705 0.000
9790 1 60.358 93.475 0.000
9791 1 61.779 93.475 0.000
9792 1 62.489 94.705 0.000
9793 1 63.909 94.705 0.000
9794 1 64.619 93.475 0.000
9795 1 66.039 93.475 0.000
9796 1 66.749 94.705 0.000
9797 1 68.170 94.705 0.000
9798 1 68.880 93.475 0.000
9799 1 70.300 93.475 0.000
9800 3 70.300 93.475 1.100
9801 1 71.010 94.705 0.000
9802 1 72.430 94.705 0.000
9803 1 73.140 93.475 0.000
9804 1 74.561 93.475 0.000
9805 1 75.271 94.705 0.000
9806 1 76.691 94.705 0.000
9807 1 77.401 93.475 0.000
9808 1 78.821 93.475 0.000
9809 3 78.821 93.475 1.100
9810 1 79.531 94.705 0.000
9811 1 80.951 94.705 0.000
9812 1 81.662 93.475 0.000
9813 1 83.082 93.475 0.000
9814 1 83.792 94.705 0.000
9815 1 85.212 94.705 0.000
9816 1 85.922 93.475 0.000
9817 1 87.342 93.475 0.000
9818 1 88.052 94.705 0.000
9819 1 89.473 94.705 0.000
9820 1 90.183 93.475 0.000
9821 1 91.603 93.475 0.000
9822 1 92.313 94.705 0.000
9823 1 93.733 94.705 0.000
9824 1 94.443 93.475 0.000
9825 1 95.864 93.475 0.000
9826 1 96.574 94.705 0.000
9827 1 97.994 94.705 0.000
9828 1 98.704 93.475 0.000
9829 1 100.124 93.475 0.000
9830 1 100.834 94.705 0.000
9831 1 102.254 94.705 0.000
9832 3 102.254 94.705 -1.100
9833 1 102.965 93.475 0.000
9834 1 104.385 93.475 0.000
9835 1 105.095 94.705 0.000
9836 1 106.515 94.705 0.000
9837 1 107.225 93.475 0.000
9838 1 108.645 93.475 0.000
9839 1 109.355 94.705 0.000
9840 1 110.776 94.705 0.000
9841 1 111.486 93.475 0.000
9842 1 112.906 93.475 0.000
9843 1 113.616 94.705 0.000
9844 1 115.036 94.705 0.000
9845 1 115.746 93.475 0.000
9846 1 117.167 93.475 0.000
9847 1 117.877 94.705 0.000
9848 1 119.297 94.705 0.000
9849 1 120.007 93.475 0.000
9850 1 121.427 93.475 0.000
9851 1 122.137 94.705 0.000
9852 3 122.137 94.705 1.100
9853 1 123.557 94.705 0.000
9854 1 124.267 93.475 0.000
9855 1 125.688 93.475 0.000
9856 1 126.398 94.705 0.000
9857 1 127.818 94.705 0.000
9858 1 128.528 93.475 0.000
9859 1 129.948 93.475 0.000
9860 1 130.658 94.705 0.000
9861 1 132.079 94.705 0.000
9862 1 132.789 93.475 0.000
9863 1 134.209 93.475 0.000
9864 1 134.919 94.705 0.000
9865 1 136.339 94.705 0.000
9866 1 137.049 93.475 0.000
9867 1 138.470 93.475 0.000
9868 1 139.180 94.705 0.000
9869 1 140.600 94.705 0.000
9870 1 141.310 93.475 0.000
9871 1 142.730 93.475 0.000
9872 1 143.440 94.705 0.000
9873 1 144.860 94.705 0.000
9874 1 145.571 93.475 0.000
9875 1 146.991 93.475 0.000
9876 1 147.701 94.705 0.000
9877 1 149.121 94.705 0.000
9878 1 149.831 93.475 0.000
9879 3 149.831 93.475 1.100
9880 1 151.251 93.475 0.000
9881 1 151.961 94.705 0.000
9882 1 153.382 94.705 0.000
9883 1 154.092 93.475 0.000
9884 1 155.512 93.475 0.000
9885 1 156.222 94.705 0.000
9886 1 157.642 94.705 0.000
9887 1 158.352 93.475 0.000
9888 1 159.773 93.475 0.000
9889 1 160.483 94.705 0.000
9890 1 161.903 94.705 0.000
9891 1 162.613 93.475 0.000
9892 1 164.033 93.475 0.000
9893 1 164.743 94.705 0.000
9894 1 166.163 94.705 0.000
9895 1 166.874 93.475 0.000
9896 1 168.294 93.475 0.000
9897 1 169.004 94.705 0.000
9898 1 170.424 94.705 0.000
9899 1 171.134 93.475 0.000
9900 1 172.554 93.475 0.000
9901 1 173.264 94.705 0.000
9902 1 174.685 94.705 0.000
9903 1 175.395 93.475 0.000
9904 1 176.815 93.475 0.000
9905 1 177.525 94.705 0.000
9906 1 178.945 94.705 0.000
9907 1 179.655 93.475 0.000
9908 1 181.076 93.475 0.000
9909 1 181.786 94.705 0.000
9910 1 183.206 94.705 0.000
9911 1 183.916 93.475 0.000
9912 1 185.336 93.475 0.000
9913 1 186.046 94.705 0.000
9914 1 187.466 94.705 0.000
9915 1 188.177 93.475 0.000
9916 1 189.597 93.475 0.000
9917 1 190.307 94.705 0.000
9918 1 191.727 94.705 0.000
9919 1 192.437 93.475 0.000
9920 1 193.857 93.475 0.000
9921 1 194.567 94.705 0.000
9922 1 195.988 94.705 0.000
9923 1 196.698 93.475 0.000
9924 1 198.118 93.475 0.000
9925 1 198.828 94.705 0.000
9926 1 200.248 94.705 0.000
9927 1 200.958 93.475 0.000
9928 1 202.379 93.475 0.000
9929 1 203.089 94.705 0.000
9930 1 204.509 94.705 0.000
9931 1 205.219 93.475 0.000
9932 1 206.639 93.475 0.000
9933 1 207.349 94.705 0.000
9934 1 208.769 94.705 0.000
9935 1 209.480 93.475 0.000
9936 1 210.900 93.475 0.000
9937 1 211.610 94.705 0.000
9938 1 213.030 94.705 0.000
9939 1 213.740 93.475 0.000
9940 1 215.160 93.475 0.000
9941 1 215.870 94.705 0.000
9942 1 217.291 94.705 0.000
9943 1 218.001 93.475 0.000
9944 1 219.421 93.475 0.000
9945 1 220.131 94.705 0.000
9946 1 221.551 94.705 0.000
9947 1 222.261 93.475 0.000
9948 1 223.681 93.475 0.000
9949 1 224.392 94.705 0.000
9950 1 225.812 94.705 0.000
9951 1 226.522 93.475 0.000
9952 1 227.942 93.475 0.000
9953 1 228.652 94.705 0.000
9954 1 230.072 94.705 0.000
9955 1 230.783 93.475 0.000
9956 1 232.203 93.475 0.000
9957 1 232.913 94.705 0.000
9958 1 234.333 94.705 0.000
9959 1 235.043 93.475 0.000
9960 3 235.043 93.475 -1.100
9961 1 236.463 93.475 0.000
9962 1 237.173 94.705 0.000
9963 1 238.594 94.705 0.000
9964 1 239.304 93.475 0.000
9965 1 240.724 93.475 0.000
9966 1 241.434 94.705 0.000
9967 1 242.854 94.705 0.000
9968 1 243.564 93.475 0.000
9969 1 244.985 93.475 0.000
9970 1 245.695 94.705 0.000
9971 1 247.115 94.705 0.000
9972 1 247.825 93.475 0.000
9973 1 249.245 93.475 0.000
9974 1 249.955 94.705 0.000
9975 1 0.000 97.164 0.000
9976 1 0.710 95.934 0.000
9977 1 2.130 95.934 0.000
9978 1 2.840 97.164 0.000
9979 1 4.261 97.164 0.000
9980 1 4.971 95.934 0.000
9981 1 6.391 95.934 0.000
9982 1 7.101 97.164 0.000
9983 1 8.521 97.164 0.000
9984 1 9.231 95.934 0.000
9985 1 10.652 95.934 0.000
9986 1 11.362 97.164 0.000
9987 1 12.782 97.164 0.000
9988 1 13.492 95.934 0.000
9989 1 14.912 95.934 0.000
9990 1 15.622 97.164 0.000
9991 1 17.042 97.164 0.000
9992 1 17.753 95.934 0.000
9993 1 19.173 95.934 0.000
9994 1 19.883 97.164 0.000
9995 1 21.303 97.164 0.000
9996 1 22.013 95.934 0.000
9997 3 22.013 95.934 -1.100
9998 1 23.433 95.934 0.000
9999 1 24.143 97.164 0.000
10000 1 25.564 97.164 0.000
10001 1 26.274 95.934 0.000
10002 1 27.694 95.934 0.000
10003 1 28.404 97.164 0.000
10004 1 29.824 97.164 0.000
10005 1 30.534 95.934 0.000
10006 1 31.954 95.934 0.000
10007 1 32.665 97.164 0.000
10008 1 34.085 97.164 0.000
10009 1 34.795 95.934 0.000
10010 1 36.215 95.934 0.000
10011 1 36.925 97.164 0.000
10012 1 38.345 97.164 0.000
10013 1 39.055 95.934 0.000
10014 1 40.476 95.934 0.000
10015 1 41.186 97.164 0.000
10016 1 42.606 97.164 0.000
10017 1 43.316 95.934 0.000
10018 1 44.736 95.934 0.000
10019 1 45.446 97.164 0.000
10020 1 46.867 97.164 0.000
10021 1 47.577 95.934 0.000
10022 1 48.997 95.934 0.000
10023 1 49.707 97.164 0.000
10024 1 51.127 97.164 0.000
10025 1 51.837 95.934 0.000
10026 1 53.258 95.934 0.000
10027 1 53.968 97.164 0.000
10028 1 55.388 97.164 0.000
10029 1 56.098 95.934 0.000
10030 1 57.518 95.934 0.000
10031 1 58.228 97.164 0.000
10032 1 59.648 97.164 0.000
10033 1 60.358 95.934 0.000
10034 1 61.779 95.934 0.000
10035 3 61.779 95.934 -1.100
10036 1 62.489 97.164 0.000
10037 1 63.909 97.164 0.000
10038 1 64.619 95.934 0.000
10039 1 66.039 95.934 0.000
10040 1 66.749 97.164 0.000
10041 3 66.749 97.164 -1.100
10042 1 68.170 97.164 0.000
10043 1 68.880 95.934 0.000
10044 1 70.300 95.934 0.000
10045 1 71.010 97.164 0.000
10046 1 72.430 97.164 0.000
10047 1 73.140 95.934 0.000
10048 1 74.561 95.934 0.000
10049 1 75.271 97.164 0.000
10050 1 76.691 97.164 0.000
10051 1 77.401 95.934 0.000
10052 1 78.821 95.934 0.000
10053 1 79.531 97.164 0.000
10054 1 80.951 97.164 0.000
10055 1 81.662 95.934 0.000
10056 1 83.082 95.934 0.000
10057 1 83.792 97.164 0.000
10058 1 85.212 97.164 0.000
10059 1 85.922 95.934 0.000
10060 1 87.342 95.934 0.000
10061 1 88.052 97.164 0.000
10062 1 89.473 97.164 0.000
10063 1 90.183 95.934 0.000
10064 1 91.603 95.934 0.000
10065 1 92.313 97.164 0.000
10066 1 93.733 97.164 0.000
10067 1 94.443 95.934 0.000
10068 1 95.864 95.934 0.000
10069 1 96.574 97.164 0.000
10070 1 97.994 97.164 0.000
10071 1 98.704 95.934 0.000
10072 2 98.704 95.934 1.500
10073 3 99.804 95.934 1.633
10074 3 97.604 95.934 1.633
10075 2 98.704 95.934 3.040
10076 3 99.804 95.934 3.173
10077 3 98.154 96.887 3.173
10078 3 98.154 94.981 3.173
10079 1 100.124 95.934 0.000
10080 1 100.834 97.164 0.000
10081 1 102.254 97.164 0.000
10082 1 102.965 95.934 0.000
10083 1 104.385 95.934 0.000
10084 1 105.095 97.164 0.000
10085 1 106.515 97.164 0.000
10086 1 107.225 95.934 0.000
10087 1 108.645 95.934 0.000
10088 1 109.355 97.164 0.000
10089 1 110.776 97.164 0.000
10090 1 111.486 95.934 0.000
10091 1 112.906 95.934 0.000
10092 1 113.616 97.164 0.000
10093 1 115.036 97.164 0.000
10094 1 115.746 95.934 0.000
10095 1 117.167 95.934 0.000
10096 1 117.877 97.164 0.000
10097 1 119.297 97.164 0.000
10098 1 120.007 95.934 0.000
10099 1 121.427 95.934 0.000
10100 1 122.137 97.164 0.000
10101 1 123.557 97.164 0.000
10102 1 124.267 95.934 0.000
10103 1 125.688 95.934 0.000
10104 1 126.398 97.164 0.000
10105 1 127.818 97.164 0.000
10106 2 127.818 97.164 -1.500
10107 3 128.918 97.164 -1.633
10108 3 127.268 98.117 -1.633
10109 3 127.268 96.211 -1.633
10110 1 128.528 95.934 0.000
10111 1 129.948 95.934 0.000
10112 1 130.658 97.164 0.000
10113 1 132.079 97.164 0.000
10114 1 132.789 95.934 0.000
10115 1 134.209 95.934 0.000
10116 1 134.919 97.164 0.000
10117 1 136.339 97.164 0.000
10118 1 137.049 95.934 0.000
10119 1 138.470 95.934 0.000
10120 1 139.180 97.164 0.000
10121 1 140.600 97.164 0.000
10122 1 141.310 95.934 0.000
10123 1 142.730 95.934 0.000
10124 1 143.440 97.164 0.000
10125 1 144.860 97.164 0.000
10126 1 145.571 95.934 0.000
10127 1 146.991 95.934 0.000
10128 1 147.701 97.164 0.000
10129 1 149.121 97.164 0.000
10130 1 149.831 95.934 0.000
10131 1 151.251 95.934 0.000
10132 1 151.961 97.164 0.000
10133 1 153.382 97.164 0.000
10134 1 154.092 95.934 0.000
10135 1 155.512 95.934 0.000
10136 1 156.222 97.164 0.000
10137 1 157.642 97.164 0.000
10138 1 158.352 95.934 0.000
10139 1 159.773 95.934 0.000
10140 1 160.483 97.164 0.000
10141 1 161.903 97.164 0.000
10142 1 162.613 95.934 0.000
10143 1 164.033 95.934 0.000
10144 1 164.743 97.164 0.000
10145 1 166.163 97.164 0.000
10146 1 166.874 95.934 0.000
10147 1 168.294 95.934 0.000
10148 1 169.004 97.164 0.000
10149 1 170.424 97.164 0.000
10150 1 171.134 95.934 0.000
10151 1 172.554 95.934 0.000
10152 1 173.264 97.164 0.000
10153 1 174.685 97.164 0.000
10154 1 175.395 95.934 0.000
10155 1 176.815 95.934 0.000
10156 1 177.525 97.164 0.000
10157 1 178.945 97.164 0.000
10158 1 179.655 95.934 0.000
10159 1 181.076 95.934 0.000
10160 1 181.786 97.164 0.000
10161 1 183.206 97.164 0.000
10162 1 183.916 95.934 0.000
10163 1 185.336 95.934 0.000
10164 1 186.046 97.164 0.000
10165 1 187.466 97.164 0.000
10166 1 188.177 95.934 0.000
10167 1 189.597 95.934 0.000
10168 1 190.307 97.164 0.000
10169 1 191.727 97.164 0.000
10170 1 192.437 95.934 0.000
10171 1 193.857 95.934 0.000
10172 1 194.567 97.164 0.000
10173 1 195.988 97.164 0.000
10174 1 196.698 95.934 0.000
10175 1 198.118 95.934 0.000
10176 1 198.828 97.164 0.000
10177 1 200.248 97.164 0.000
10178 1 200.958 95.934 0.000
10179 1 202.379 95.934 0.000
10180 1 203.089 97.164 0.000
10181 1 204.509 97.164 0.000
10182 1 205.219 95.934 0.000
10183 1 206.639 95.934 0.000
10184 1 207.349 97.164 0.000
10185 1 208.769 97.164 0.000
10186 1 209.480 95.934 0.000
10187 1 210.900 95.934 0.000
10188 1 211.610 97.164 0.000
10189 1 213.030 97.164 0.000
10190 1 213.740 95.934 0.000
10191 1 215.160 95.934 0.000
10192 1 215.870 97.164 0.000
10193 1 217.291 97.164 0.000
10194 1 218.001 95.934 0.000
10195 1 219.421 95.934 0.000
10196 3 219.421 95.934 -1.100
10197 1 220.131 97.164 0.000
10198 1 221.551 97.164 0.000
10199 1 222.261 95.934 0.000
10200 1 223.681 95.934 0.000
10201 1 224.392 97.164 0.000
10202 1 225.812 97.164 0.000
10203 1 226.522 95.934 0.000
10204 1 227.942 95.934 0.000
10205 1 228.652 97.164 0.000
10206 3 228.652 97.164 1.100
10207 1 230.072 97.164 0.000
10208 1 230.783 95.934 0.000
10209 1 232.203 95.934 0.000
10210 1 232.913 97.164 0.000
10211 1 234.333 97.164 0.000
10212 1 235.043 95.934 0.000
10213 1 236.463 95.934 0.000
10214 1 237.173 97.164 0.000
10215 1 238.594 97.164 0.000
10216 1 239.304 95.934 0.000
10217 1 240.724 95.934 0.000
10218 1 241.434 97.164 0.000
10219 1 242.854 97.164 0.000
10220 1 243.564 95.934 0.000
10221 1 244.985 95.934 0.000
10222 1 245.695 97.164 0.000
10223 1 247.115 97.164 0.000
10224 1 247.825 95.934 0.000
10225 1 249.245 95.934 0.000
10226 1 249.955 97.164 0.000
10227 1 0.000 99.624 0.000
10228 1 0.710 98.394 0.000
10229 1 2.130 98.394 0.000
10230 1 2.840 99.624 0.000
10231 1 4.261 99.624 0.000
10232 1 4.971 98.394 0.000
10233 1 6.391 98.394 0.000
10234 1 7.101 99.624 0.000
10235 1 8.521 99.624 0.000
10236 1 9.231 98.394 0.000
10237 1 10.652 98.394 0.000
10238 1 11.362 99.624 0.000
10239 1 12.782 99.624 0.000
10240 1 13.492 98.394 0.000
10241 1 14.912 98.394 0.000
10242 3 14.912 98.394 1.100
10243 1 15.622 99.624 0.000
10244 1 17.042 99.624 0.000
10245 1 17.753 98.394 0.000
10246 1 19.173 98.394 0.000
10247 1 19.883 99.624 0.000
10248 1 21.303 99.624 0.000
10249 2 21.303 99.624 1.500
10250 3 22.403 99.624 1.633
10251 3 20.753 100.577 1.633
10252 3 20.753 98.671 1.633
10253 1 22.013 98.394 0.000
10254 1 23.433 98.394 0.000
10255 1 24.143 99.624 0.000
10256 1 25.564 99.624 0.000
10257 1 26.274 98.394 0.000
10258 1 27.694 98.394 0.000
10259 1 28.404 99.624 0.000
10260 1 29.824 99.624 0.000
10261 1 30.534 98.394 0.000
10262 1 31.954 98.394 0.000
10263 1 32.665 99.624 0.000
10264 1 34.085 99.624 0.000
10265 1 34.795 98.394 0.000
10266 1 36.215 98.394 0.000
10267 1 36.925 99.624 0.000
10268 1 38.345 99.624 0.000
10269 1 39.055 98.394 0.000
10270 1 40.476 98.394 0.000
10271 1 41.186 99.624 0.000
10272 1 42.606 99.624 0.000
10273 1 43.316 98.394 0.000
10274 1 44.736 98.394 0.000
10275 1 45.446 99.624 0.000
10276 1 46.867 99.624 0.000
10277 1 47.577 98.394 0.000
10278 1 48.997 98.394 0.000
10279 1 49.707 99.624 0.000
10280 1 51.127 99.624 0.000
10281 1 51.837 98.394 0.000
10282 1 53.258 98.394 0.000
10283 1 53.968 99.624 0.000
10284 1 55.388 99.624 0.000
10285 1 56.098 98.394 0.000
10286 1 57.518 98.394 0.000
10287 1 58.228 99.624 0.000
10288 1 59.648 99.624 0.000
10289 1 60.358 98.394 0.000
10290 1 61.779 98.394 0.000
10291 1 62.489 99.624 0.000
10292 1 63.909 99.624 0.000
10293 1 64.619 98.394 0.000
10294 1 66.039 98.394 0.000
10295 1 66.749 99.624 0.000
10296 1 68.170 99.624 0.000
10297 1 68.880 98.394 0.000
10298 1 70.300 98.394 0.000
10299 1 71.010 99.624 0.000
10300 1 72.430 99.624 0.000
10301 1 73.140 98.394 0.000
10302 1 74.561 98.394 0.000
10303 1 75.271 99.624 0.000
10304 1 76.691 99.624 0.000
10305 1 77.401 98.394 0.000
10306 1 78.821 98.394 0.000
10307 1 79.531 99.624 0.000
10308 1 80.951 99.624 0.000
10309 1 81.662 98.394 0.000
10310 1 83.082 98.394 0.000
10311 1 83.792 99.624 0.000
10312 1 85.212 99.624 0.000
10313 1 85.922 98.394 0.000
10314 1 87.342 98.394 0.000
10315 1 88.052 99.624 0.000
10316 1 89.473 99.624 0.000
10317 1 90.183 98.394 0.000
10318 1 91.603 98.394 0.000
10319 1 92.313 99.624 0.000
10320 1 93.733 99.624 0.000
10321 1 94.443 98.394 0.000
10322 1 95.864 98.394 0.000
10323 1 96.574 99.624 0.000
10324 1 97.994 99.624 0.000
10325 1 98.704 98.394 0.000
10326 1 100.124 98.394 0.000
10327 1 100.834 99.624 0.000
10328 3 100.834 99.624 -1.100
10329 1 102.254 99.624 0.000
10330 1 102.965 98.394 0.000
10331 1 104.385 98.394 0.000
10332 1 105.095 99.624 0.000
10333 1 106.515 99.624 0.000
10334 1 107.225 98.394 0.000
10335 1 108.645 98.394 0.000
10336 1 109.355 99.624 0.000
10337 1 110.776 99.624 0.000
10338 1 111.486 98.394 0.000
10339 1 112.906 98.394 0.000
10340 1 113.616 99.624 0.000
10341 1 115.036 99.624 0.000
10342 1 115.746 98.394 0.000
10343 1 117.167 98.394 0.000
10344 1 117.877 99.624 0.000
10345 1 119.297 99.624 0.000
10346 1 120.007 98.394 0.000
10347 1 121.427 98.394 0.000
10348 1 122.137 99.624 0.000
10349 1 123.557 99.624 0.000
10350 1 124.267 98.394 0.000
10351 1 125.688 98.394 0.000
10352 1 126.398 99.624 0.000
10353 1 127.818 99.624 0.000
10354 1 128.528 98.394 0.000
10355 1 129.948 98.394 0.000
10356 1 130.658 99.624 0.000
10357 1 132.079 99.624 0.000
10358 1 132.789 98.394 0.000
10359 1 134.209 98.394 0.000
10360 1 134.919 99.624 0.000
10361 1 136.339 99.624 0.000
10362 1 137.049 98.394 0.000
10363 1 138.470 98.394 0.000
10364 1 139.180 99.624 0.000
10365 1 140.600 99.624 0.000
10366 1 141.310 98.394 0.000
10367 1 142.730 98.394 0.000
10368 1 143.440 99.624 0.000
10369 1 144.860 99.624 0.000
10370 1 145.571 98.394 0.000
10371 1 146.991 98.394 0.000
10372 1 147.701 99.624 0.000
10373 1 149.121 99.624 0.000
10374 1 149.831 98.394 0.000
10375 1 151.251 98.394 0.000
10376 1 151.961 99.624 0.000
10377 1 153.382 99.624 0.000
10378 1 154.092 98.394 0.000
10379 1 155.512 98.394 0.000
10380 1 156.222 99.624 0.000
10381 1 157.642 99.624 0.000
10382 1 158.352 98.394 0.000
10383 1 159.773 98.394 0.000
10384 1 160.483 99.624 0.000
10385 1 161.903 99.624 0.000
10386 1 162.613 98.394 0.000
10387 1 164.033 98.394 0.000
10388 1 164.743 99.624 0.000
10389 1 166.163 99.624 0.000
10390 1 166.874 98.394 0.000
10391 1 168.294 98.394 0.000
10392 1 169.004 99.624 0.000
10393 1 170.424 99.624 0.000
10394 1 171.134 98.394 0.000
10395 1 172.554 98.394 0.000
10396 1 173.264 99.624 0.000
10397 3 173.264 99.624 1.100
10398 1 174.685 99.624 0.000
10399 1 175.395 98.394 0.000
10400 1 176.815 98.394 0.000
10401 1 177.525 99.624 0.000
10402 3 177.525 99.624 1.100
10403 1 178.945 99.624 0.000
10404 1 179.655 98.394 0.000
10405 1 181.076 98.394 0.000
10406 1 181.786 99.624 0.000
10407 1 183.206 99.624 0.000
10408 1 183.916 98.394 0.000
10409 1 185.336 98.394 0.000
10410 3 185.336 98.394 1.100
10411 1 186.046 99.624 0.000
10412 1 187.466 99.624 0.000
10413 1 188.177 98.394 0.000
10414 1 189.597 98.394 0.000
10415 1 190.307 99.624 0.000
10416 1 191.727 99.624 0.000
10417 1 192.437 98.394 0.000
10418 1 193.857 98.394 0.000
10419 1 194.567 99.624 0.000
10420 1 195.988 99.624 0.000
10421 1 196.698 98.394 0.000
10422 1 198.118 98.394 0.000
10423 1 198.828 99.624 0.000
10424 1 200.248 99.624 0.000
10425 1 200.958 98.394 0.000
10426 1 202.379 98.394 0.000
10427 1 203.089 99.624 0.000
10428 1 204.509 99.624 0.000
10429 1 205.219 98.394 0.000
10430 1 206.639 98.394 0.000
10431 1 207.349 99.624 0.000
10432 1 208.769 99.624 0.000
10433 1 209.480 98.394 0.000
10434 1 210.900 98.394 0.000
10435 1 211.610 99.624 0.000
10436 1 213.030 99.624 0.000
10437 1 213.740 98.394 0.000
10438 1 215.160 98.394 0.000
10439 1 215.870 99.624 0.000
10440 1 217.291 99.624 0.000
10441 1 218.001 98.394 0.000
10442 1 219.421 98.394 0.000
10443 1 220.131 99.624 0.000
10444 1 221.551 99.624 0.000
10445 1 222.261 98.394 0.000
10446 1 223.681 98.394 0.000
10447 1 224.392 99.624 0.000
10448 1 225.812 99.624 0.000
10449 1 226.522 98.394 0.000
10450 1 227.942 98.394 0.000
10451 1 228.652 99.624 0.000
10452 1 230.072 99.624 0.000
10453 1 230.783 98.394 0.000
10454 1 232.203 98.394 0.000
10455 1 232.913 99.624 0.000
10456 1 234.333 99.624 0.000
10457 3 234.333 99.624 -1.100
10458 1 235.043 98.394 0.000
10459 1 236.463 98.394 0.000
10460 1 237.173 99.624 0.000
10461 1 238.594 99.624 0.000
10462 1 239.304 98.394 0.000
10463 1 240.724 98.394 0.000
10464 1 241.434 99.624 0.000
10465 1 242.854 99.624 0.000
10466 1 243.564 98.394 0.000
10467 1 244.985 98.394 0.000
10468 1 245.695 99.624 0.000
10469 1 247.115 99.624 0.000
10470 1 247.825 98.394 0.000
10471 1 249.245 98.394 0.000
10472 3 249.245 98.394 1.100
10473 1 249.955 99.624 0.000
