LAMMPS data file for methylated 6% & hydrogenated 10% graphene

12939 atoms
3 atom types

0	251.3754 xlo xhi
0	100.8542008332821 ylo yhi
-10	10 zlo zhi

Masses

1    12.001
2    12.001
3    1.008

Atoms

1 1 0.000 1.230 0.000
2 1 0.710 0.000 0.000
3 1 2.130 0.000 0.000
4 1 2.840 1.230 0.000
5 1 4.261 1.230 0.000
6 1 4.971 0.000 0.000
7 1 6.391 0.000 0.000
8 1 7.101 1.230 0.000
9 1 8.521 1.230 0.000
10 1 9.231 0.000 0.000
11 2 9.231 0.000 1.500
12 3 10.331 0.000 1.633
13 3 8.681 0.953 1.633
14 3 8.681 -0.953 1.633
15 1 10.652 0.000 0.000
16 1 11.362 1.230 0.000
17 1 12.782 1.230 0.000
18 1 13.492 0.000 0.000
19 1 14.912 0.000 0.000
20 1 15.622 1.230 0.000
21 1 17.042 1.230 0.000
22 1 17.753 0.000 0.000
23 1 19.173 0.000 0.000
24 1 19.883 1.230 0.000
25 1 21.303 1.230 0.000
26 1 22.013 0.000 0.000
27 1 23.433 0.000 0.000
28 1 24.143 1.230 0.000
29 1 25.564 1.230 0.000
30 1 26.274 0.000 0.000
31 1 27.694 0.000 0.000
32 1 28.404 1.230 0.000
33 1 29.824 1.230 0.000
34 1 30.534 0.000 0.000
35 1 31.954 0.000 0.000
36 1 32.665 1.230 0.000
37 1 34.085 1.230 0.000
38 1 34.795 0.000 0.000
39 1 36.215 0.000 0.000
40 1 36.925 1.230 0.000
41 1 38.345 1.230 0.000
42 2 38.345 1.230 -1.500
43 3 39.445 1.230 -1.633
44 3 37.795 2.183 -1.633
45 3 37.795 0.277 -1.633
46 1 39.055 0.000 0.000
47 1 40.476 0.000 0.000
48 1 41.186 1.230 0.000
49 1 42.606 1.230 0.000
50 1 43.316 0.000 0.000
51 1 44.736 0.000 0.000
52 1 45.446 1.230 0.000
53 1 46.867 1.230 0.000
54 1 47.577 0.000 0.000
55 2 47.577 0.000 1.500
56 3 48.677 0.000 1.633
57 3 47.027 0.953 1.633
58 3 47.027 -0.953 1.633
59 1 48.997 0.000 0.000
60 1 49.707 1.230 0.000
61 1 51.127 1.230 0.000
62 2 51.127 1.230 -1.500
63 3 52.227 1.230 -1.633
64 3 50.577 2.183 -1.633
65 3 50.577 0.277 -1.633
66 1 51.837 0.000 0.000
67 1 53.258 0.000 0.000
68 1 53.968 1.230 0.000
69 1 55.388 1.230 0.000
70 1 56.098 0.000 0.000
71 1 57.518 0.000 0.000
72 1 58.228 1.230 0.000
73 1 59.648 1.230 0.000
74 1 60.358 0.000 0.000
75 1 61.779 0.000 0.000
76 1 62.489 1.230 0.000
77 2 62.489 1.230 1.500
78 3 63.589 1.230 1.633
79 3 61.939 2.183 1.633
80 3 61.939 0.277 1.633
81 1 63.909 1.230 0.000
82 1 64.619 0.000 0.000
83 2 64.619 0.000 -1.500
84 3 65.719 0.000 -1.633
85 3 64.069 0.953 -1.633
86 3 64.069 -0.953 -1.633
87 1 66.039 0.000 0.000
88 1 66.749 1.230 0.000
89 1 68.170 1.230 0.000
90 1 68.880 0.000 0.000
91 3 68.880 0.000 -1.100
92 1 70.300 0.000 0.000
93 3 70.300 0.000 1.100
94 1 71.010 1.230 0.000
95 1 72.430 1.230 0.000
96 2 72.430 1.230 1.500
97 3 73.530 1.230 1.633
98 3 71.880 2.183 1.633
99 3 71.880 0.277 1.633
100 1 73.140 0.000 0.000
101 1 74.561 0.000 0.000
102 1 75.271 1.230 0.000
103 1 76.691 1.230 0.000
104 1 77.401 0.000 0.000
105 1 78.821 0.000 0.000
106 1 79.531 1.230 0.000
107 3 79.531 1.230 1.100
108 1 80.951 1.230 0.000
109 3 80.951 1.230 -1.100
110 1 81.662 0.000 0.000
111 1 83.082 0.000 0.000
112 1 83.792 1.230 0.000
113 1 85.212 1.230 0.000
114 1 85.922 0.000 0.000
115 1 87.342 0.000 0.000
116 1 88.052 1.230 0.000
117 1 89.473 1.230 0.000
118 1 90.183 0.000 0.000
119 1 91.603 0.000 0.000
120 1 92.313 1.230 0.000
121 1 93.733 1.230 0.000
122 1 94.443 0.000 0.000
123 3 94.443 0.000 1.100
124 1 95.864 0.000 0.000
125 1 96.574 1.230 0.000
126 1 97.994 1.230 0.000
127 2 97.994 1.230 1.500
128 3 99.094 1.230 1.633
129 3 97.444 2.183 1.633
130 3 97.444 0.277 1.633
131 1 98.704 0.000 0.000
132 1 100.124 0.000 0.000
133 1 100.834 1.230 0.000
134 1 102.254 1.230 0.000
135 1 102.965 0.000 0.000
136 1 104.385 0.000 0.000
137 1 105.095 1.230 0.000
138 1 106.515 1.230 0.000
139 1 107.225 0.000 0.000
140 2 107.225 0.000 1.500
141 3 108.325 0.000 1.633
142 3 106.675 0.953 1.633
143 3 106.675 -0.953 1.633
144 1 108.645 0.000 0.000
145 1 109.355 1.230 0.000
146 1 110.776 1.230 0.000
147 2 110.776 1.230 1.500
148 3 111.876 1.230 1.633
149 3 110.226 2.183 1.633
150 3 110.226 0.277 1.633
151 1 111.486 0.000 0.000
152 1 112.906 0.000 0.000
153 1 113.616 1.230 0.000
154 1 115.036 1.230 0.000
155 1 115.746 0.000 0.000
156 1 117.167 0.000 0.000
157 1 117.877 1.230 0.000
158 2 117.877 1.230 1.500
159 3 118.977 1.230 1.633
160 3 117.327 2.183 1.633
161 3 117.327 0.277 1.633
162 1 119.297 1.230 0.000
163 1 120.007 0.000 0.000
164 1 121.427 0.000 0.000
165 1 122.137 1.230 0.000
166 1 123.557 1.230 0.000
167 2 123.557 1.230 -1.500
168 3 124.657 1.230 -1.633
169 3 123.007 2.183 -1.633
170 3 123.007 0.277 -1.633
171 1 124.267 0.000 0.000
172 1 125.688 0.000 0.000
173 1 126.398 1.230 0.000
174 1 127.818 1.230 0.000
175 1 128.528 0.000 0.000
176 1 129.948 0.000 0.000
177 1 130.658 1.230 0.000
178 1 132.079 1.230 0.000
179 1 132.789 0.000 0.000
180 1 134.209 0.000 0.000
181 1 134.919 1.230 0.000
182 1 136.339 1.230 0.000
183 1 137.049 0.000 0.000
184 2 137.049 0.000 -1.500
185 3 138.149 0.000 -1.633
186 3 136.499 0.953 -1.633
187 3 136.499 -0.953 -1.633
188 1 138.470 0.000 0.000
189 1 139.180 1.230 0.000
190 1 140.600 1.230 0.000
191 1 141.310 0.000 0.000
192 1 142.730 0.000 0.000
193 3 142.730 0.000 -1.100
194 1 143.440 1.230 0.000
195 1 144.860 1.230 0.000
196 2 144.860 1.230 1.500
197 3 145.960 1.230 1.633
198 3 144.310 2.183 1.633
199 3 144.310 0.277 1.633
200 1 145.571 0.000 0.000
201 1 146.991 0.000 0.000
202 1 147.701 1.230 0.000
203 1 149.121 1.230 0.000
204 1 149.831 0.000 0.000
205 1 151.251 0.000 0.000
206 1 151.961 1.230 0.000
207 3 151.961 1.230 1.100
208 1 153.382 1.230 0.000
209 1 154.092 0.000 0.000
210 1 155.512 0.000 0.000
211 1 156.222 1.230 0.000
212 1 157.642 1.230 0.000
213 1 158.352 0.000 0.000
214 1 159.773 0.000 0.000
215 1 160.483 1.230 0.000
216 1 161.903 1.230 0.000
217 1 162.613 0.000 0.000
218 1 164.033 0.000 0.000
219 1 164.743 1.230 0.000
220 1 166.163 1.230 0.000
221 3 166.163 1.230 1.100
222 1 166.874 0.000 0.000
223 1 168.294 0.000 0.000
224 1 169.004 1.230 0.000
225 1 170.424 1.230 0.000
226 1 171.134 0.000 0.000
227 3 171.134 0.000 -1.100
228 1 172.554 0.000 0.000
229 1 173.264 1.230 0.000
230 1 174.685 1.230 0.000
231 3 174.685 1.230 1.100
232 1 175.395 0.000 0.000
233 1 176.815 0.000 0.000
234 1 177.525 1.230 0.000
235 1 178.945 1.230 0.000
236 1 179.655 0.000 0.000
237 1 181.076 0.000 0.000
238 3 181.076 0.000 1.100
239 1 181.786 1.230 0.000
240 1 183.206 1.230 0.000
241 1 183.916 0.000 0.000
242 1 185.336 0.000 0.000
243 1 186.046 1.230 0.000
244 1 187.466 1.230 0.000
245 1 188.177 0.000 0.000
246 2 188.177 0.000 1.500
247 3 189.277 0.000 1.633
248 3 187.627 0.953 1.633
249 3 187.627 -0.953 1.633
250 1 189.597 0.000 0.000
251 1 190.307 1.230 0.000
252 3 190.307 1.230 -1.100
253 1 191.727 1.230 0.000
254 1 192.437 0.000 0.000
255 1 193.857 0.000 0.000
256 1 194.567 1.230 0.000
257 1 195.988 1.230 0.000
258 1 196.698 0.000 0.000
259 2 196.698 0.000 1.500
260 3 197.798 0.000 1.633
261 3 196.148 0.953 1.633
262 3 196.148 -0.953 1.633
263 1 198.118 0.000 0.000
264 1 198.828 1.230 0.000
265 1 200.248 1.230 0.000
266 3 200.248 1.230 -1.100
267 1 200.958 0.000 0.000
268 1 202.379 0.000 0.000
269 3 202.379 0.000 -1.100
270 1 203.089 1.230 0.000
271 1 204.509 1.230 0.000
272 1 205.219 0.000 0.000
273 1 206.639 0.000 0.000
274 1 207.349 1.230 0.000
275 1 208.769 1.230 0.000
276 1 209.480 0.000 0.000
277 1 210.900 0.000 0.000
278 1 211.610 1.230 0.000
279 1 213.030 1.230 0.000
280 1 213.740 0.000 0.000
281 1 215.160 0.000 0.000
282 1 215.870 1.230 0.000
283 1 217.291 1.230 0.000
284 1 218.001 0.000 0.000
285 1 219.421 0.000 0.000
286 1 220.131 1.230 0.000
287 1 221.551 1.230 0.000
288 1 222.261 0.000 0.000
289 1 223.681 0.000 0.000
290 1 224.392 1.230 0.000
291 1 225.812 1.230 0.000
292 1 226.522 0.000 0.000
293 1 227.942 0.000 0.000
294 1 228.652 1.230 0.000
295 1 230.072 1.230 0.000
296 1 230.783 0.000 0.000
297 1 232.203 0.000 0.000
298 1 232.913 1.230 0.000
299 1 234.333 1.230 0.000
300 1 235.043 0.000 0.000
301 1 236.463 0.000 0.000
302 1 237.173 1.230 0.000
303 1 238.594 1.230 0.000
304 1 239.304 0.000 0.000
305 1 240.724 0.000 0.000
306 1 241.434 1.230 0.000
307 2 241.434 1.230 -1.500
308 3 242.534 1.230 -1.633
309 3 240.884 2.183 -1.633
310 3 240.884 0.277 -1.633
311 1 242.854 1.230 0.000
312 1 243.564 0.000 0.000
313 1 244.985 0.000 0.000
314 1 245.695 1.230 0.000
315 1 247.115 1.230 0.000
316 1 247.825 0.000 0.000
317 1 249.245 0.000 0.000
318 3 249.245 0.000 -1.100
319 1 249.955 1.230 0.000
320 1 0.000 3.690 0.000
321 1 0.710 2.460 0.000
322 1 2.130 2.460 0.000
323 2 2.130 2.460 1.500
324 3 3.230 2.460 1.633
325 3 1.580 3.412 1.633
326 3 1.580 1.507 1.633
327 1 2.840 3.690 0.000
328 1 4.261 3.690 0.000
329 1 4.971 2.460 0.000
330 1 6.391 2.460 0.000
331 1 7.101 3.690 0.000
332 1 8.521 3.690 0.000
333 2 8.521 3.690 -1.500
334 3 9.621 3.690 -1.633
335 3 7.971 4.642 -1.633
336 3 7.971 2.737 -1.633
337 1 9.231 2.460 0.000
338 1 10.652 2.460 0.000
339 1 11.362 3.690 0.000
340 1 12.782 3.690 0.000
341 1 13.492 2.460 0.000
342 3 13.492 2.460 -1.100
343 1 14.912 2.460 0.000
344 1 15.622 3.690 0.000
345 2 15.622 3.690 1.500
346 3 16.722 3.690 1.633
347 3 15.072 4.642 1.633
348 3 15.072 2.737 1.633
349 1 17.042 3.690 0.000
350 1 17.753 2.460 0.000
351 1 19.173 2.460 0.000
352 1 19.883 3.690 0.000
353 1 21.303 3.690 0.000
354 1 22.013 2.460 0.000
355 1 23.433 2.460 0.000
356 2 23.433 2.460 -1.500
357 3 24.533 2.460 -1.633
358 3 22.883 3.412 -1.633
359 3 22.883 1.507 -1.633
360 1 24.143 3.690 0.000
361 1 25.564 3.690 0.000
362 1 26.274 2.460 0.000
363 1 27.694 2.460 0.000
364 2 27.694 2.460 1.500
365 3 28.794 2.460 1.633
366 3 27.144 3.412 1.633
367 3 27.144 1.507 1.633
368 1 28.404 3.690 0.000
369 1 29.824 3.690 0.000
370 1 30.534 2.460 0.000
371 1 31.954 2.460 0.000
372 3 31.954 2.460 1.100
373 1 32.665 3.690 0.000
374 1 34.085 3.690 0.000
375 1 34.795 2.460 0.000
376 1 36.215 2.460 0.000
377 1 36.925 3.690 0.000
378 1 38.345 3.690 0.000
379 1 39.055 2.460 0.000
380 1 40.476 2.460 0.000
381 1 41.186 3.690 0.000
382 1 42.606 3.690 0.000
383 3 42.606 3.690 -1.100
384 1 43.316 2.460 0.000
385 1 44.736 2.460 0.000
386 3 44.736 2.460 -1.100
387 1 45.446 3.690 0.000
388 1 46.867 3.690 0.000
389 2 46.867 3.690 -1.500
390 3 47.967 3.690 -1.633
391 3 46.317 4.642 -1.633
392 3 46.317 2.737 -1.633
393 1 47.577 2.460 0.000
394 1 48.997 2.460 0.000
395 1 49.707 3.690 0.000
396 1 51.127 3.690 0.000
397 2 51.127 3.690 1.500
398 3 52.227 3.690 1.633
399 3 50.577 4.642 1.633
400 3 50.577 2.737 1.633
401 1 51.837 2.460 0.000
402 1 53.258 2.460 0.000
403 1 53.968 3.690 0.000
404 1 55.388 3.690 0.000
405 1 56.098 2.460 0.000
406 1 57.518 2.460 0.000
407 1 58.228 3.690 0.000
408 1 59.648 3.690 0.000
409 1 60.358 2.460 0.000
410 1 61.779 2.460 0.000
411 1 62.489 3.690 0.000
412 1 63.909 3.690 0.000
413 1 64.619 2.460 0.000
414 1 66.039 2.460 0.000
415 1 66.749 3.690 0.000
416 1 68.170 3.690 0.000
417 1 68.880 2.460 0.000
418 1 70.300 2.460 0.000
419 1 71.010 3.690 0.000
420 1 72.430 3.690 0.000
421 1 73.140 2.460 0.000
422 1 74.561 2.460 0.000
423 3 74.561 2.460 -1.100
424 1 75.271 3.690 0.000
425 3 75.271 3.690 1.100
426 1 76.691 3.690 0.000
427 1 77.401 2.460 0.000
428 1 78.821 2.460 0.000
429 1 79.531 3.690 0.000
430 1 80.951 3.690 0.000
431 1 81.662 2.460 0.000
432 1 83.082 2.460 0.000
433 1 83.792 3.690 0.000
434 1 85.212 3.690 0.000
435 1 85.922 2.460 0.000
436 1 87.342 2.460 0.000
437 1 88.052 3.690 0.000
438 1 89.473 3.690 0.000
439 2 89.473 3.690 1.500
440 3 90.573 3.690 1.633
441 3 88.923 4.642 1.633
442 3 88.923 2.737 1.633
443 1 90.183 2.460 0.000
444 1 91.603 2.460 0.000
445 1 92.313 3.690 0.000
446 1 93.733 3.690 0.000
447 1 94.443 2.460 0.000
448 1 95.864 2.460 0.000
449 1 96.574 3.690 0.000
450 1 97.994 3.690 0.000
451 2 97.994 3.690 -1.500
452 3 99.094 3.690 -1.633
453 3 97.444 4.642 -1.633
454 3 97.444 2.737 -1.633
455 1 98.704 2.460 0.000
456 1 100.124 2.460 0.000
457 1 100.834 3.690 0.000
458 1 102.254 3.690 0.000
459 1 102.965 2.460 0.000
460 1 104.385 2.460 0.000
461 2 104.385 2.460 -1.500
462 3 105.485 2.460 -1.633
463 3 103.835 3.412 -1.633
464 3 103.835 1.507 -1.633
465 1 105.095 3.690 0.000
466 3 105.095 3.690 1.100
467 1 106.515 3.690 0.000
468 1 107.225 2.460 0.000
469 1 108.645 2.460 0.000
470 1 109.355 3.690 0.000
471 1 110.776 3.690 0.000
472 1 111.486 2.460 0.000
473 1 112.906 2.460 0.000
474 1 113.616 3.690 0.000
475 1 115.036 3.690 0.000
476 1 115.746 2.460 0.000
477 1 117.167 2.460 0.000
478 1 117.877 3.690 0.000
479 1 119.297 3.690 0.000
480 1 120.007 2.460 0.000
481 1 121.427 2.460 0.000
482 1 122.137 3.690 0.000
483 3 122.137 3.690 1.100
484 1 123.557 3.690 0.000
485 1 124.267 2.460 0.000
486 1 125.688 2.460 0.000
487 1 126.398 3.690 0.000
488 1 127.818 3.690 0.000
489 1 128.528 2.460 0.000
490 1 129.948 2.460 0.000
491 1 130.658 3.690 0.000
492 1 132.079 3.690 0.000
493 2 132.079 3.690 1.500
494 3 133.179 3.690 1.633
495 3 131.529 4.642 1.633
496 3 131.529 2.737 1.633
497 1 132.789 2.460 0.000
498 1 134.209 2.460 0.000
499 1 134.919 3.690 0.000
500 1 136.339 3.690 0.000
501 2 136.339 3.690 1.500
502 3 137.439 3.690 1.633
503 3 135.789 4.642 1.633
504 3 135.789 2.737 1.633
505 1 137.049 2.460 0.000
506 1 138.470 2.460 0.000
507 1 139.180 3.690 0.000
508 1 140.600 3.690 0.000
509 1 141.310 2.460 0.000
510 1 142.730 2.460 0.000
511 1 143.440 3.690 0.000
512 1 144.860 3.690 0.000
513 1 145.571 2.460 0.000
514 1 146.991 2.460 0.000
515 1 147.701 3.690 0.000
516 3 147.701 3.690 1.100
517 1 149.121 3.690 0.000
518 1 149.831 2.460 0.000
519 1 151.251 2.460 0.000
520 1 151.961 3.690 0.000
521 1 153.382 3.690 0.000
522 3 153.382 3.690 -1.100
523 1 154.092 2.460 0.000
524 1 155.512 2.460 0.000
525 3 155.512 2.460 1.100
526 1 156.222 3.690 0.000
527 1 157.642 3.690 0.000
528 1 158.352 2.460 0.000
529 1 159.773 2.460 0.000
530 1 160.483 3.690 0.000
531 3 160.483 3.690 -1.100
532 1 161.903 3.690 0.000
533 1 162.613 2.460 0.000
534 1 164.033 2.460 0.000
535 1 164.743 3.690 0.000
536 1 166.163 3.690 0.000
537 1 166.874 2.460 0.000
538 1 168.294 2.460 0.000
539 1 169.004 3.690 0.000
540 1 170.424 3.690 0.000
541 1 171.134 2.460 0.000
542 1 172.554 2.460 0.000
543 1 173.264 3.690 0.000
544 1 174.685 3.690 0.000
545 1 175.395 2.460 0.000
546 1 176.815 2.460 0.000
547 1 177.525 3.690 0.000
548 1 178.945 3.690 0.000
549 1 179.655 2.460 0.000
550 1 181.076 2.460 0.000
551 2 181.076 2.460 1.500
552 3 182.175 2.460 1.633
553 3 180.525 3.412 1.633
554 3 180.525 1.507 1.633
555 1 181.786 3.690 0.000
556 1 183.206 3.690 0.000
557 1 183.916 2.460 0.000
558 1 185.336 2.460 0.000
559 1 186.046 3.690 0.000
560 1 187.466 3.690 0.000
561 1 188.177 2.460 0.000
562 1 189.597 2.460 0.000
563 1 190.307 3.690 0.000
564 1 191.727 3.690 0.000
565 1 192.437 2.460 0.000
566 1 193.857 2.460 0.000
567 1 194.567 3.690 0.000
568 1 195.988 3.690 0.000
569 1 196.698 2.460 0.000
570 1 198.118 2.460 0.000
571 1 198.828 3.690 0.000
572 3 198.828 3.690 1.100
573 1 200.248 3.690 0.000
574 1 200.958 2.460 0.000
575 3 200.958 2.460 -1.100
576 1 202.379 2.460 0.000
577 1 203.089 3.690 0.000
578 1 204.509 3.690 0.000
579 3 204.509 3.690 -1.100
580 1 205.219 2.460 0.000
581 1 206.639 2.460 0.000
582 1 207.349 3.690 0.000
583 2 207.349 3.690 -1.500
584 3 208.449 3.690 -1.633
585 3 206.799 4.642 -1.633
586 3 206.799 2.737 -1.633
587 1 208.769 3.690 0.000
588 1 209.480 2.460 0.000
589 1 210.900 2.460 0.000
590 1 211.610 3.690 0.000
591 1 213.030 3.690 0.000
592 1 213.740 2.460 0.000
593 1 215.160 2.460 0.000
594 1 215.870 3.690 0.000
595 1 217.291 3.690 0.000
596 1 218.001 2.460 0.000
597 1 219.421 2.460 0.000
598 3 219.421 2.460 1.100
599 1 220.131 3.690 0.000
600 1 221.551 3.690 0.000
601 1 222.261 2.460 0.000
602 1 223.681 2.460 0.000
603 1 224.392 3.690 0.000
604 1 225.812 3.690 0.000
605 1 226.522 2.460 0.000
606 1 227.942 2.460 0.000
607 1 228.652 3.690 0.000
608 1 230.072 3.690 0.000
609 1 230.783 2.460 0.000
610 1 232.203 2.460 0.000
611 3 232.203 2.460 -1.100
612 1 232.913 3.690 0.000
613 1 234.333 3.690 0.000
614 1 235.043 2.460 0.000
615 3 235.043 2.460 -1.100
616 1 236.463 2.460 0.000
617 1 237.173 3.690 0.000
618 1 238.594 3.690 0.000
619 3 238.594 3.690 1.100
620 1 239.304 2.460 0.000
621 1 240.724 2.460 0.000
622 1 241.434 3.690 0.000
623 3 241.434 3.690 1.100
624 1 242.854 3.690 0.000
625 1 243.564 2.460 0.000
626 2 243.564 2.460 1.500
627 3 244.664 2.460 1.633
628 3 243.014 3.412 1.633
629 3 243.014 1.507 1.633
630 1 244.985 2.460 0.000
631 1 245.695 3.690 0.000
632 1 247.115 3.690 0.000
633 1 247.825 2.460 0.000
634 1 249.245 2.460 0.000
635 2 249.245 2.460 -1.500
636 3 250.345 2.460 -1.633
637 3 248.695 3.412 -1.633
638 3 248.695 1.507 -1.633
639 1 249.955 3.690 0.000
640 1 0.000 6.150 0.000
641 1 0.710 4.920 0.000
642 3 0.710 4.920 1.100
643 1 2.130 4.920 0.000
644 1 2.840 6.150 0.000
645 1 4.261 6.150 0.000
646 1 4.971 4.920 0.000
647 1 6.391 4.920 0.000
648 1 7.101 6.150 0.000
649 1 8.521 6.150 0.000
650 3 8.521 6.150 1.100
651 1 9.231 4.920 0.000
652 1 10.652 4.920 0.000
653 1 11.362 6.150 0.000
654 1 12.782 6.150 0.000
655 1 13.492 4.920 0.000
656 1 14.912 4.920 0.000
657 1 15.622 6.150 0.000
658 1 17.042 6.150 0.000
659 1 17.753 4.920 0.000
660 1 19.173 4.920 0.000
661 1 19.883 6.150 0.000
662 1 21.303 6.150 0.000
663 1 22.013 4.920 0.000
664 1 23.433 4.920 0.000
665 1 24.143 6.150 0.000
666 1 25.564 6.150 0.000
667 1 26.274 4.920 0.000
668 1 27.694 4.920 0.000
669 1 28.404 6.150 0.000
670 2 28.404 6.150 1.500
671 3 29.504 6.150 1.633
672 3 27.854 7.102 1.633
673 3 27.854 5.197 1.633
674 1 29.824 6.150 0.000
675 1 30.534 4.920 0.000
676 1 31.954 4.920 0.000
677 1 32.665 6.150 0.000
678 3 32.665 6.150 1.100
679 1 34.085 6.150 0.000
680 1 34.795 4.920 0.000
681 3 34.795 4.920 1.100
682 1 36.215 4.920 0.000
683 1 36.925 6.150 0.000
684 1 38.345 6.150 0.000
685 1 39.055 4.920 0.000
686 1 40.476 4.920 0.000
687 1 41.186 6.150 0.000
688 1 42.606 6.150 0.000
689 1 43.316 4.920 0.000
690 1 44.736 4.920 0.000
691 1 45.446 6.150 0.000
692 2 45.446 6.150 1.500
693 3 46.546 6.150 1.633
694 3 44.896 7.102 1.633
695 3 44.896 5.197 1.633
696 1 46.867 6.150 0.000
697 3 46.867 6.150 -1.100
698 1 47.577 4.920 0.000
699 1 48.997 4.920 0.000
700 1 49.707 6.150 0.000
701 1 51.127 6.150 0.000
702 1 51.837 4.920 0.000
703 1 53.258 4.920 0.000
704 1 53.968 6.150 0.000
705 3 53.968 6.150 -1.100
706 1 55.388 6.150 0.000
707 1 56.098 4.920 0.000
708 1 57.518 4.920 0.000
709 1 58.228 6.150 0.000
710 3 58.228 6.150 1.100
711 1 59.648 6.150 0.000
712 1 60.358 4.920 0.000
713 1 61.779 4.920 0.000
714 1 62.489 6.150 0.000
715 1 63.909 6.150 0.000
716 1 64.619 4.920 0.000
717 1 66.039 4.920 0.000
718 1 66.749 6.150 0.000
719 1 68.170 6.150 0.000
720 1 68.880 4.920 0.000
721 1 70.300 4.920 0.000
722 1 71.010 6.150 0.000
723 1 72.430 6.150 0.000
724 2 72.430 6.150 -1.500
725 3 73.530 6.150 -1.633
726 3 71.880 7.102 -1.633
727 3 71.880 5.197 -1.633
728 1 73.140 4.920 0.000
729 3 73.140 4.920 1.100
730 1 74.561 4.920 0.000
731 3 74.561 4.920 -1.100
732 1 75.271 6.150 0.000
733 1 76.691 6.150 0.000
734 1 77.401 4.920 0.000
735 1 78.821 4.920 0.000
736 1 79.531 6.150 0.000
737 1 80.951 6.150 0.000
738 3 80.951 6.150 -1.100
739 1 81.662 4.920 0.000
740 1 83.082 4.920 0.000
741 3 83.082 4.920 -1.100
742 1 83.792 6.150 0.000
743 1 85.212 6.150 0.000
744 1 85.922 4.920 0.000
745 1 87.342 4.920 0.000
746 1 88.052 6.150 0.000
747 1 89.473 6.150 0.000
748 1 90.183 4.920 0.000
749 1 91.603 4.920 0.000
750 3 91.603 4.920 1.100
751 1 92.313 6.150 0.000
752 1 93.733 6.150 0.000
753 2 93.733 6.150 -1.500
754 3 94.833 6.150 -1.633
755 3 93.183 7.102 -1.633
756 3 93.183 5.197 -1.633
757 1 94.443 4.920 0.000
758 1 95.864 4.920 0.000
759 1 96.574 6.150 0.000
760 2 96.574 6.150 1.500
761 3 97.674 6.150 1.633
762 3 96.024 7.102 1.633
763 3 96.024 5.197 1.633
764 1 97.994 6.150 0.000
765 1 98.704 4.920 0.000
766 1 100.124 4.920 0.000
767 1 100.834 6.150 0.000
768 1 102.254 6.150 0.000
769 1 102.965 4.920 0.000
770 1 104.385 4.920 0.000
771 1 105.095 6.150 0.000
772 1 106.515 6.150 0.000
773 1 107.225 4.920 0.000
774 1 108.645 4.920 0.000
775 1 109.355 6.150 0.000
776 1 110.776 6.150 0.000
777 1 111.486 4.920 0.000
778 1 112.906 4.920 0.000
779 1 113.616 6.150 0.000
780 1 115.036 6.150 0.000
781 1 115.746 4.920 0.000
782 1 117.167 4.920 0.000
783 1 117.877 6.150 0.000
784 1 119.297 6.150 0.000
785 1 120.007 4.920 0.000
786 1 121.427 4.920 0.000
787 1 122.137 6.150 0.000
788 1 123.557 6.150 0.000
789 1 124.267 4.920 0.000
790 1 125.688 4.920 0.000
791 1 126.398 6.150 0.000
792 3 126.398 6.150 -1.100
793 1 127.818 6.150 0.000
794 1 128.528 4.920 0.000
795 1 129.948 4.920 0.000
796 1 130.658 6.150 0.000
797 3 130.658 6.150 1.100
798 1 132.079 6.150 0.000
799 1 132.789 4.920 0.000
800 1 134.209 4.920 0.000
801 1 134.919 6.150 0.000
802 1 136.339 6.150 0.000
803 1 137.049 4.920 0.000
804 1 138.470 4.920 0.000
805 1 139.180 6.150 0.000
806 3 139.180 6.150 -1.100
807 1 140.600 6.150 0.000
808 1 141.310 4.920 0.000
809 1 142.730 4.920 0.000
810 1 143.440 6.150 0.000
811 1 144.860 6.150 0.000
812 1 145.571 4.920 0.000
813 3 145.571 4.920 1.100
814 1 146.991 4.920 0.000
815 3 146.991 4.920 1.100
816 1 147.701 6.150 0.000
817 1 149.121 6.150 0.000
818 1 149.831 4.920 0.000
819 2 149.831 4.920 -1.500
820 3 150.931 4.920 -1.633
821 3 149.281 5.872 -1.633
822 3 149.281 3.967 -1.633
823 1 151.251 4.920 0.000
824 1 151.961 6.150 0.000
825 1 153.382 6.150 0.000
826 1 154.092 4.920 0.000
827 1 155.512 4.920 0.000
828 3 155.512 4.920 -1.100
829 1 156.222 6.150 0.000
830 1 157.642 6.150 0.000
831 1 158.352 4.920 0.000
832 1 159.773 4.920 0.000
833 1 160.483 6.150 0.000
834 1 161.903 6.150 0.000
835 1 162.613 4.920 0.000
836 1 164.033 4.920 0.000
837 1 164.743 6.150 0.000
838 1 166.163 6.150 0.000
839 2 166.163 6.150 -1.500
840 3 167.263 6.150 -1.633
841 3 165.613 7.102 -1.633
842 3 165.613 5.197 -1.633
843 1 166.874 4.920 0.000
844 1 168.294 4.920 0.000
845 1 169.004 6.150 0.000
846 2 169.004 6.150 1.500
847 3 170.104 6.150 1.633
848 3 168.454 7.102 1.633
849 3 168.454 5.197 1.633
850 1 170.424 6.150 0.000
851 1 171.134 4.920 0.000
852 3 171.134 4.920 1.100
853 1 172.554 4.920 0.000
854 3 172.554 4.920 1.100
855 1 173.264 6.150 0.000
856 1 174.685 6.150 0.000
857 1 175.395 4.920 0.000
858 2 175.395 4.920 -1.500
859 3 176.495 4.920 -1.633
860 3 174.845 5.872 -1.633
861 3 174.845 3.967 -1.633
862 1 176.815 4.920 0.000
863 1 177.525 6.150 0.000
864 1 178.945 6.150 0.000
865 1 179.655 4.920 0.000
866 1 181.076 4.920 0.000
867 3 181.076 4.920 1.100
868 1 181.786 6.150 0.000
869 1 183.206 6.150 0.000
870 1 183.916 4.920 0.000
871 3 183.916 4.920 -1.100
872 1 185.336 4.920 0.000
873 1 186.046 6.150 0.000
874 1 187.466 6.150 0.000
875 1 188.177 4.920 0.000
876 1 189.597 4.920 0.000
877 2 189.597 4.920 -1.500
878 3 190.697 4.920 -1.633
879 3 189.047 5.872 -1.633
880 3 189.047 3.967 -1.633
881 1 190.307 6.150 0.000
882 1 191.727 6.150 0.000
883 3 191.727 6.150 -1.100
884 1 192.437 4.920 0.000
885 1 193.857 4.920 0.000
886 3 193.857 4.920 -1.100
887 1 194.567 6.150 0.000
888 1 195.988 6.150 0.000
889 1 196.698 4.920 0.000
890 1 198.118 4.920 0.000
891 1 198.828 6.150 0.000
892 1 200.248 6.150 0.000
893 2 200.248 6.150 -1.500
894 3 201.348 6.150 -1.633
895 3 199.698 7.102 -1.633
896 3 199.698 5.197 -1.633
897 1 200.958 4.920 0.000
898 3 200.958 4.920 1.100
899 1 202.379 4.920 0.000
900 3 202.379 4.920 -1.100
901 1 203.089 6.150 0.000
902 1 204.509 6.150 0.000
903 3 204.509 6.150 1.100
904 1 205.219 4.920 0.000
905 1 206.639 4.920 0.000
906 1 207.349 6.150 0.000
907 1 208.769 6.150 0.000
908 1 209.480 4.920 0.000
909 1 210.900 4.920 0.000
910 1 211.610 6.150 0.000
911 1 213.030 6.150 0.000
912 2 213.030 6.150 -1.500
913 3 214.130 6.150 -1.633
914 3 212.480 7.102 -1.633
915 3 212.480 5.197 -1.633
916 1 213.740 4.920 0.000
917 1 215.160 4.920 0.000
918 1 215.870 6.150 0.000
919 1 217.291 6.150 0.000
920 1 218.001 4.920 0.000
921 1 219.421 4.920 0.000
922 1 220.131 6.150 0.000
923 1 221.551 6.150 0.000
924 3 221.551 6.150 1.100
925 1 222.261 4.920 0.000
926 1 223.681 4.920 0.000
927 1 224.392 6.150 0.000
928 3 224.392 6.150 1.100
929 1 225.812 6.150 0.000
930 1 226.522 4.920 0.000
931 1 227.942 4.920 0.000
932 1 228.652 6.150 0.000
933 1 230.072 6.150 0.000
934 3 230.072 6.150 -1.100
935 1 230.783 4.920 0.000
936 2 230.783 4.920 1.500
937 3 231.883 4.920 1.633
938 3 230.233 5.872 1.633
939 3 230.233 3.967 1.633
940 1 232.203 4.920 0.000
941 1 232.913 6.150 0.000
942 1 234.333 6.150 0.000
943 1 235.043 4.920 0.000
944 1 236.463 4.920 0.000
945 1 237.173 6.150 0.000
946 1 238.594 6.150 0.000
947 1 239.304 4.920 0.000
948 1 240.724 4.920 0.000
949 1 241.434 6.150 0.000
950 1 242.854 6.150 0.000
951 1 243.564 4.920 0.000
952 1 244.985 4.920 0.000
953 1 245.695 6.150 0.000
954 1 247.115 6.150 0.000
955 1 247.825 4.920 0.000
956 1 249.245 4.920 0.000
957 1 249.955 6.150 0.000
958 3 249.955 6.150 1.100
959 1 0.000 8.610 0.000
960 3 0.000 8.610 -1.100
961 1 0.710 7.380 0.000
962 1 2.130 7.380 0.000
963 2 2.130 7.380 1.500
964 3 3.230 7.380 1.633
965 3 1.580 8.332 1.633
966 3 1.580 6.427 1.633
967 1 2.840 8.610 0.000
968 1 4.261 8.610 0.000
969 1 4.971 7.380 0.000
970 1 6.391 7.380 0.000
971 1 7.101 8.610 0.000
972 1 8.521 8.610 0.000
973 1 9.231 7.380 0.000
974 1 10.652 7.380 0.000
975 1 11.362 8.610 0.000
976 1 12.782 8.610 0.000
977 1 13.492 7.380 0.000
978 1 14.912 7.380 0.000
979 1 15.622 8.610 0.000
980 1 17.042 8.610 0.000
981 1 17.753 7.380 0.000
982 1 19.173 7.380 0.000
983 2 19.173 7.380 -1.500
984 3 20.273 7.380 -1.633
985 3 18.623 8.332 -1.633
986 3 18.623 6.427 -1.633
987 1 19.883 8.610 0.000
988 1 21.303 8.610 0.000
989 3 21.303 8.610 -1.100
990 1 22.013 7.380 0.000
991 1 23.433 7.380 0.000
992 1 24.143 8.610 0.000
993 1 25.564 8.610 0.000
994 1 26.274 7.380 0.000
995 1 27.694 7.380 0.000
996 1 28.404 8.610 0.000
997 1 29.824 8.610 0.000
998 1 30.534 7.380 0.000
999 1 31.954 7.380 0.000
1000 2 31.954 7.380 -1.500
1001 3 33.054 7.380 -1.633
1002 3 31.404 8.332 -1.633
1003 3 31.404 6.427 -1.633
1004 1 32.665 8.610 0.000
1005 1 34.085 8.610 0.000
1006 1 34.795 7.380 0.000
1007 1 36.215 7.380 0.000
1008 1 36.925 8.610 0.000
1009 3 36.925 8.610 1.100
1010 1 38.345 8.610 0.000
1011 1 39.055 7.380 0.000
1012 2 39.055 7.380 -1.500
1013 3 40.155 7.380 -1.633
1014 3 38.505 8.332 -1.633
1015 3 38.505 6.427 -1.633
1016 1 40.476 7.380 0.000
1017 1 41.186 8.610 0.000
1018 1 42.606 8.610 0.000
1019 3 42.606 8.610 1.100
1020 1 43.316 7.380 0.000
1021 1 44.736 7.380 0.000
1022 1 45.446 8.610 0.000
1023 3 45.446 8.610 1.100
1024 1 46.867 8.610 0.000
1025 1 47.577 7.380 0.000
1026 1 48.997 7.380 0.000
1027 1 49.707 8.610 0.000
1028 1 51.127 8.610 0.000
1029 1 51.837 7.380 0.000
1030 1 53.258 7.380 0.000
1031 1 53.968 8.610 0.000
1032 3 53.968 8.610 1.100
1033 1 55.388 8.610 0.000
1034 3 55.388 8.610 -1.100
1035 1 56.098 7.380 0.000
1036 2 56.098 7.380 1.500
1037 3 57.198 7.380 1.633
1038 3 55.548 8.332 1.633
1039 3 55.548 6.427 1.633
1040 1 57.518 7.380 0.000
1041 1 58.228 8.610 0.000
1042 1 59.648 8.610 0.000
1043 1 60.358 7.380 0.000
1044 1 61.779 7.380 0.000
1045 1 62.489 8.610 0.000
1046 3 62.489 8.610 -1.100
1047 1 63.909 8.610 0.000
1048 1 64.619 7.380 0.000
1049 1 66.039 7.380 0.000
1050 1 66.749 8.610 0.000
1051 1 68.170 8.610 0.000
1052 1 68.880 7.380 0.000
1053 1 70.300 7.380 0.000
1054 3 70.300 7.380 1.100
1055 1 71.010 8.610 0.000
1056 1 72.430 8.610 0.000
1057 1 73.140 7.380 0.000
1058 1 74.561 7.380 0.000
1059 1 75.271 8.610 0.000
1060 1 76.691 8.610 0.000
1061 1 77.401 7.380 0.000
1062 1 78.821 7.380 0.000
1063 1 79.531 8.610 0.000
1064 1 80.951 8.610 0.000
1065 1 81.662 7.380 0.000
1066 1 83.082 7.380 0.000
1067 1 83.792 8.610 0.000
1068 3 83.792 8.610 -1.100
1069 1 85.212 8.610 0.000
1070 1 85.922 7.380 0.000
1071 2 85.922 7.380 -1.500
1072 3 87.022 7.380 -1.633
1073 3 85.372 8.332 -1.633
1074 3 85.372 6.427 -1.633
1075 1 87.342 7.380 0.000
1076 1 88.052 8.610 0.000
1077 1 89.473 8.610 0.000
1078 1 90.183 7.380 0.000
1079 1 91.603 7.380 0.000
1080 1 92.313 8.610 0.000
1081 1 93.733 8.610 0.000
1082 1 94.443 7.380 0.000
1083 1 95.864 7.380 0.000
1084 1 96.574 8.610 0.000
1085 1 97.994 8.610 0.000
1086 1 98.704 7.380 0.000
1087 1 100.124 7.380 0.000
1088 1 100.834 8.610 0.000
1089 1 102.254 8.610 0.000
1090 1 102.965 7.380 0.000
1091 1 104.385 7.380 0.000
1092 1 105.095 8.610 0.000
1093 1 106.515 8.610 0.000
1094 1 107.225 7.380 0.000
1095 1 108.645 7.380 0.000
1096 3 108.645 7.380 1.100
1097 1 109.355 8.610 0.000
1098 3 109.355 8.610 1.100
1099 1 110.776 8.610 0.000
1100 1 111.486 7.380 0.000
1101 1 112.906 7.380 0.000
1102 1 113.616 8.610 0.000
1103 3 113.616 8.610 1.100
1104 1 115.036 8.610 0.000
1105 3 115.036 8.610 1.100
1106 1 115.746 7.380 0.000
1107 1 117.167 7.380 0.000
1108 1 117.877 8.610 0.000
1109 1 119.297 8.610 0.000
1110 1 120.007 7.380 0.000
1111 1 121.427 7.380 0.000
1112 1 122.137 8.610 0.000
1113 1 123.557 8.610 0.000
1114 1 124.267 7.380 0.000
1115 3 124.267 7.380 1.100
1116 1 125.688 7.380 0.000
1117 1 126.398 8.610 0.000
1118 2 126.398 8.610 1.500
1119 3 127.498 8.610 1.633
1120 3 125.848 9.562 1.633
1121 3 125.848 7.657 1.633
1122 1 127.818 8.610 0.000
1123 1 128.528 7.380 0.000
1124 1 129.948 7.380 0.000
1125 1 130.658 8.610 0.000
1126 1 132.079 8.610 0.000
1127 1 132.789 7.380 0.000
1128 1 134.209 7.380 0.000
1129 1 134.919 8.610 0.000
1130 1 136.339 8.610 0.000
1131 1 137.049 7.380 0.000
1132 1 138.470 7.380 0.000
1133 1 139.180 8.610 0.000
1134 3 139.180 8.610 -1.100
1135 1 140.600 8.610 0.000
1136 1 141.310 7.380 0.000
1137 1 142.730 7.380 0.000
1138 2 142.730 7.380 1.500
1139 3 143.830 7.380 1.633
1140 3 142.180 8.332 1.633
1141 3 142.180 6.427 1.633
1142 1 143.440 8.610 0.000
1143 1 144.860 8.610 0.000
1144 3 144.860 8.610 -1.100
1145 1 145.571 7.380 0.000
1146 1 146.991 7.380 0.000
1147 1 147.701 8.610 0.000
1148 1 149.121 8.610 0.000
1149 1 149.831 7.380 0.000
1150 1 151.251 7.380 0.000
1151 2 151.251 7.380 1.500
1152 3 152.351 7.380 1.633
1153 3 150.701 8.332 1.633
1154 3 150.701 6.427 1.633
1155 1 151.961 8.610 0.000
1156 1 153.382 8.610 0.000
1157 1 154.092 7.380 0.000
1158 1 155.512 7.380 0.000
1159 1 156.222 8.610 0.000
1160 1 157.642 8.610 0.000
1161 1 158.352 7.380 0.000
1162 1 159.773 7.380 0.000
1163 1 160.483 8.610 0.000
1164 1 161.903 8.610 0.000
1165 1 162.613 7.380 0.000
1166 1 164.033 7.380 0.000
1167 1 164.743 8.610 0.000
1168 1 166.163 8.610 0.000
1169 1 166.874 7.380 0.000
1170 1 168.294 7.380 0.000
1171 3 168.294 7.380 -1.100
1172 1 169.004 8.610 0.000
1173 1 170.424 8.610 0.000
1174 1 171.134 7.380 0.000
1175 1 172.554 7.380 0.000
1176 1 173.264 8.610 0.000
1177 1 174.685 8.610 0.000
1178 1 175.395 7.380 0.000
1179 1 176.815 7.380 0.000
1180 3 176.815 7.380 1.100
1181 1 177.525 8.610 0.000
1182 1 178.945 8.610 0.000
1183 1 179.655 7.380 0.000
1184 1 181.076 7.380 0.000
1185 1 181.786 8.610 0.000
1186 1 183.206 8.610 0.000
1187 1 183.916 7.380 0.000
1188 3 183.916 7.380 1.100
1189 1 185.336 7.380 0.000
1190 1 186.046 8.610 0.000
1191 1 187.466 8.610 0.000
1192 1 188.177 7.380 0.000
1193 1 189.597 7.380 0.000
1194 1 190.307 8.610 0.000
1195 1 191.727 8.610 0.000
1196 1 192.437 7.380 0.000
1197 1 193.857 7.380 0.000
1198 1 194.567 8.610 0.000
1199 1 195.988 8.610 0.000
1200 1 196.698 7.380 0.000
1201 1 198.118 7.380 0.000
1202 1 198.828 8.610 0.000
1203 1 200.248 8.610 0.000
1204 1 200.958 7.380 0.000
1205 1 202.379 7.380 0.000
1206 1 203.089 8.610 0.000
1207 1 204.509 8.610 0.000
1208 1 205.219 7.380 0.000
1209 1 206.639 7.380 0.000
1210 1 207.349 8.610 0.000
1211 1 208.769 8.610 0.000
1212 3 208.769 8.610 1.100
1213 1 209.480 7.380 0.000
1214 1 210.900 7.380 0.000
1215 2 210.900 7.380 1.500
1216 3 212.000 7.380 1.633
1217 3 210.350 8.332 1.633
1218 3 210.350 6.427 1.633
1219 1 211.610 8.610 0.000
1220 1 213.030 8.610 0.000
1221 1 213.740 7.380 0.000
1222 1 215.160 7.380 0.000
1223 3 215.160 7.380 1.100
1224 1 215.870 8.610 0.000
1225 1 217.291 8.610 0.000
1226 2 217.291 8.610 -1.500
1227 3 218.391 8.610 -1.633
1228 3 216.741 9.562 -1.633
1229 3 216.741 7.657 -1.633
1230 1 218.001 7.380 0.000
1231 1 219.421 7.380 0.000
1232 3 219.421 7.380 -1.100
1233 1 220.131 8.610 0.000
1234 1 221.551 8.610 0.000
1235 1 222.261 7.380 0.000
1236 1 223.681 7.380 0.000
1237 1 224.392 8.610 0.000
1238 2 224.392 8.610 -1.500
1239 3 225.492 8.610 -1.633
1240 3 223.842 9.562 -1.633
1241 3 223.842 7.657 -1.633
1242 1 225.812 8.610 0.000
1243 1 226.522 7.380 0.000
1244 1 227.942 7.380 0.000
1245 2 227.942 7.380 -1.500
1246 3 229.042 7.380 -1.633
1247 3 227.392 8.332 -1.633
1248 3 227.392 6.427 -1.633
1249 1 228.652 8.610 0.000
1250 1 230.072 8.610 0.000
1251 3 230.072 8.610 -1.100
1252 1 230.783 7.380 0.000
1253 1 232.203 7.380 0.000
1254 1 232.913 8.610 0.000
1255 3 232.913 8.610 -1.100
1256 1 234.333 8.610 0.000
1257 1 235.043 7.380 0.000
1258 1 236.463 7.380 0.000
1259 1 237.173 8.610 0.000
1260 1 238.594 8.610 0.000
1261 1 239.304 7.380 0.000
1262 2 239.304 7.380 -1.500
1263 3 240.404 7.380 -1.633
1264 3 238.754 8.332 -1.633
1265 3 238.754 6.427 -1.633
1266 1 240.724 7.380 0.000
1267 1 241.434 8.610 0.000
1268 1 242.854 8.610 0.000
1269 1 243.564 7.380 0.000
1270 1 244.985 7.380 0.000
1271 1 245.695 8.610 0.000
1272 1 247.115 8.610 0.000
1273 1 247.825 7.380 0.000
1274 1 249.245 7.380 0.000
1275 1 249.955 8.610 0.000
1276 3 249.955 8.610 1.100
1277 1 0.000 11.069 0.000
1278 1 0.710 9.839 0.000
1279 1 2.130 9.839 0.000
1280 1 2.840 11.069 0.000
1281 1 4.261 11.069 0.000
1282 1 4.971 9.839 0.000
1283 1 6.391 9.839 0.000
1284 1 7.101 11.069 0.000
1285 1 8.521 11.069 0.000
1286 1 9.231 9.839 0.000
1287 1 10.652 9.839 0.000
1288 1 11.362 11.069 0.000
1289 1 12.782 11.069 0.000
1290 1 13.492 9.839 0.000
1291 1 14.912 9.839 0.000
1292 1 15.622 11.069 0.000
1293 1 17.042 11.069 0.000
1294 1 17.753 9.839 0.000
1295 3 17.753 9.839 -1.100
1296 1 19.173 9.839 0.000
1297 1 19.883 11.069 0.000
1298 2 19.883 11.069 1.500
1299 3 20.983 11.069 1.633
1300 3 19.333 12.022 1.633
1301 3 19.333 10.117 1.633
1302 1 21.303 11.069 0.000
1303 1 22.013 9.839 0.000
1304 1 23.433 9.839 0.000
1305 1 24.143 11.069 0.000
1306 1 25.564 11.069 0.000
1307 1 26.274 9.839 0.000
1308 1 27.694 9.839 0.000
1309 1 28.404 11.069 0.000
1310 1 29.824 11.069 0.000
1311 1 30.534 9.839 0.000
1312 1 31.954 9.839 0.000
1313 1 32.665 11.069 0.000
1314 1 34.085 11.069 0.000
1315 1 34.795 9.839 0.000
1316 1 36.215 9.839 0.000
1317 1 36.925 11.069 0.000
1318 1 38.345 11.069 0.000
1319 1 39.055 9.839 0.000
1320 1 40.476 9.839 0.000
1321 3 40.476 9.839 -1.100
1322 1 41.186 11.069 0.000
1323 1 42.606 11.069 0.000
1324 3 42.606 11.069 1.100
1325 1 43.316 9.839 0.000
1326 3 43.316 9.839 1.100
1327 1 44.736 9.839 0.000
1328 1 45.446 11.069 0.000
1329 1 46.867 11.069 0.000
1330 1 47.577 9.839 0.000
1331 1 48.997 9.839 0.000
1332 1 49.707 11.069 0.000
1333 1 51.127 11.069 0.000
1334 1 51.837 9.839 0.000
1335 1 53.258 9.839 0.000
1336 1 53.968 11.069 0.000
1337 1 55.388 11.069 0.000
1338 2 55.388 11.069 1.500
1339 3 56.488 11.069 1.633
1340 3 54.838 12.022 1.633
1341 3 54.838 10.117 1.633
1342 1 56.098 9.839 0.000
1343 1 57.518 9.839 0.000
1344 1 58.228 11.069 0.000
1345 1 59.648 11.069 0.000
1346 1 60.358 9.839 0.000
1347 1 61.779 9.839 0.000
1348 1 62.489 11.069 0.000
1349 2 62.489 11.069 -1.500
1350 3 63.589 11.069 -1.633
1351 3 61.939 12.022 -1.633
1352 3 61.939 10.117 -1.633
1353 1 63.909 11.069 0.000
1354 1 64.619 9.839 0.000
1355 1 66.039 9.839 0.000
1356 1 66.749 11.069 0.000
1357 1 68.170 11.069 0.000
1358 1 68.880 9.839 0.000
1359 1 70.300 9.839 0.000
1360 2 70.300 9.839 -1.500
1361 3 71.400 9.839 -1.633
1362 3 69.750 10.792 -1.633
1363 3 69.750 8.887 -1.633
1364 1 71.010 11.069 0.000
1365 1 72.430 11.069 0.000
1366 1 73.140 9.839 0.000
1367 1 74.561 9.839 0.000
1368 1 75.271 11.069 0.000
1369 1 76.691 11.069 0.000
1370 1 77.401 9.839 0.000
1371 1 78.821 9.839 0.000
1372 3 78.821 9.839 -1.100
1373 1 79.531 11.069 0.000
1374 1 80.951 11.069 0.000
1375 1 81.662 9.839 0.000
1376 1 83.082 9.839 0.000
1377 1 83.792 11.069 0.000
1378 1 85.212 11.069 0.000
1379 3 85.212 11.069 -1.100
1380 1 85.922 9.839 0.000
1381 1 87.342 9.839 0.000
1382 1 88.052 11.069 0.000
1383 1 89.473 11.069 0.000
1384 2 89.473 11.069 1.500
1385 3 90.573 11.069 1.633
1386 3 88.923 12.022 1.633
1387 3 88.923 10.117 1.633
1388 1 90.183 9.839 0.000
1389 1 91.603 9.839 0.000
1390 1 92.313 11.069 0.000
1391 1 93.733 11.069 0.000
1392 1 94.443 9.839 0.000
1393 1 95.864 9.839 0.000
1394 1 96.574 11.069 0.000
1395 1 97.994 11.069 0.000
1396 1 98.704 9.839 0.000
1397 2 98.704 9.839 1.500
1398 3 99.804 9.839 1.633
1399 3 98.154 10.792 1.633
1400 3 98.154 8.887 1.633
1401 1 100.124 9.839 0.000
1402 1 100.834 11.069 0.000
1403 1 102.254 11.069 0.000
1404 1 102.965 9.839 0.000
1405 1 104.385 9.839 0.000
1406 1 105.095 11.069 0.000
1407 1 106.515 11.069 0.000
1408 1 107.225 9.839 0.000
1409 1 108.645 9.839 0.000
1410 3 108.645 9.839 -1.100
1411 1 109.355 11.069 0.000
1412 1 110.776 11.069 0.000
1413 1 111.486 9.839 0.000
1414 3 111.486 9.839 1.100
1415 1 112.906 9.839 0.000
1416 1 113.616 11.069 0.000
1417 1 115.036 11.069 0.000
1418 1 115.746 9.839 0.000
1419 1 117.167 9.839 0.000
1420 1 117.877 11.069 0.000
1421 1 119.297 11.069 0.000
1422 1 120.007 9.839 0.000
1423 1 121.427 9.839 0.000
1424 1 122.137 11.069 0.000
1425 1 123.557 11.069 0.000
1426 1 124.267 9.839 0.000
1427 1 125.688 9.839 0.000
1428 1 126.398 11.069 0.000
1429 1 127.818 11.069 0.000
1430 1 128.528 9.839 0.000
1431 1 129.948 9.839 0.000
1432 1 130.658 11.069 0.000
1433 1 132.079 11.069 0.000
1434 3 132.079 11.069 1.100
1435 1 132.789 9.839 0.000
1436 1 134.209 9.839 0.000
1437 1 134.919 11.069 0.000
1438 1 136.339 11.069 0.000
1439 1 137.049 9.839 0.000
1440 3 137.049 9.839 -1.100
1441 1 138.470 9.839 0.000
1442 1 139.180 11.069 0.000
1443 1 140.600 11.069 0.000
1444 1 141.310 9.839 0.000
1445 1 142.730 9.839 0.000
1446 1 143.440 11.069 0.000
1447 1 144.860 11.069 0.000
1448 1 145.571 9.839 0.000
1449 1 146.991 9.839 0.000
1450 1 147.701 11.069 0.000
1451 1 149.121 11.069 0.000
1452 1 149.831 9.839 0.000
1453 1 151.251 9.839 0.000
1454 1 151.961 11.069 0.000
1455 3 151.961 11.069 -1.100
1456 1 153.382 11.069 0.000
1457 1 154.092 9.839 0.000
1458 1 155.512 9.839 0.000
1459 3 155.512 9.839 -1.100
1460 1 156.222 11.069 0.000
1461 3 156.222 11.069 1.100
1462 1 157.642 11.069 0.000
1463 1 158.352 9.839 0.000
1464 1 159.773 9.839 0.000
1465 1 160.483 11.069 0.000
1466 1 161.903 11.069 0.000
1467 1 162.613 9.839 0.000
1468 1 164.033 9.839 0.000
1469 1 164.743 11.069 0.000
1470 3 164.743 11.069 -1.100
1471 1 166.163 11.069 0.000
1472 2 166.163 11.069 1.500
1473 3 167.263 11.069 1.633
1474 3 165.613 12.022 1.633
1475 3 165.613 10.117 1.633
1476 1 166.874 9.839 0.000
1477 1 168.294 9.839 0.000
1478 1 169.004 11.069 0.000
1479 1 170.424 11.069 0.000
1480 1 171.134 9.839 0.000
1481 1 172.554 9.839 0.000
1482 1 173.264 11.069 0.000
1483 1 174.685 11.069 0.000
1484 1 175.395 9.839 0.000
1485 1 176.815 9.839 0.000
1486 1 177.525 11.069 0.000
1487 3 177.525 11.069 1.100
1488 1 178.945 11.069 0.000
1489 3 178.945 11.069 -1.100
1490 1 179.655 9.839 0.000
1491 1 181.076 9.839 0.000
1492 1 181.786 11.069 0.000
1493 1 183.206 11.069 0.000
1494 3 183.206 11.069 1.100
1495 1 183.916 9.839 0.000
1496 1 185.336 9.839 0.000
1497 1 186.046 11.069 0.000
1498 1 187.466 11.069 0.000
1499 1 188.177 9.839 0.000
1500 1 189.597 9.839 0.000
1501 1 190.307 11.069 0.000
1502 1 191.727 11.069 0.000
1503 1 192.437 9.839 0.000
1504 3 192.437 9.839 1.100
1505 1 193.857 9.839 0.000
1506 1 194.567 11.069 0.000
1507 1 195.988 11.069 0.000
1508 1 196.698 9.839 0.000
1509 3 196.698 9.839 -1.100
1510 1 198.118 9.839 0.000
1511 1 198.828 11.069 0.000
1512 1 200.248 11.069 0.000
1513 1 200.958 9.839 0.000
1514 1 202.379 9.839 0.000
1515 1 203.089 11.069 0.000
1516 1 204.509 11.069 0.000
1517 1 205.219 9.839 0.000
1518 1 206.639 9.839 0.000
1519 1 207.349 11.069 0.000
1520 1 208.769 11.069 0.000
1521 1 209.480 9.839 0.000
1522 1 210.900 9.839 0.000
1523 1 211.610 11.069 0.000
1524 1 213.030 11.069 0.000
1525 1 213.740 9.839 0.000
1526 1 215.160 9.839 0.000
1527 1 215.870 11.069 0.000
1528 1 217.291 11.069 0.000
1529 3 217.291 11.069 1.100
1530 1 218.001 9.839 0.000
1531 1 219.421 9.839 0.000
1532 1 220.131 11.069 0.000
1533 1 221.551 11.069 0.000
1534 1 222.261 9.839 0.000
1535 1 223.681 9.839 0.000
1536 3 223.681 9.839 1.100
1537 1 224.392 11.069 0.000
1538 1 225.812 11.069 0.000
1539 1 226.522 9.839 0.000
1540 1 227.942 9.839 0.000
1541 1 228.652 11.069 0.000
1542 1 230.072 11.069 0.000
1543 1 230.783 9.839 0.000
1544 1 232.203 9.839 0.000
1545 1 232.913 11.069 0.000
1546 1 234.333 11.069 0.000
1547 1 235.043 9.839 0.000
1548 1 236.463 9.839 0.000
1549 1 237.173 11.069 0.000
1550 1 238.594 11.069 0.000
1551 1 239.304 9.839 0.000
1552 1 240.724 9.839 0.000
1553 1 241.434 11.069 0.000
1554 1 242.854 11.069 0.000
1555 1 243.564 9.839 0.000
1556 1 244.985 9.839 0.000
1557 1 245.695 11.069 0.000
1558 1 247.115 11.069 0.000
1559 1 247.825 9.839 0.000
1560 3 247.825 9.839 -1.100
1561 1 249.245 9.839 0.000
1562 1 249.955 11.069 0.000
1563 1 0.000 13.529 0.000
1564 1 0.710 12.299 0.000
1565 1 2.130 12.299 0.000
1566 1 2.840 13.529 0.000
1567 1 4.261 13.529 0.000
1568 1 4.971 12.299 0.000
1569 1 6.391 12.299 0.000
1570 1 7.101 13.529 0.000
1571 1 8.521 13.529 0.000
1572 1 9.231 12.299 0.000
1573 1 10.652 12.299 0.000
1574 2 10.652 12.299 1.500
1575 3 11.752 12.299 1.633
1576 3 10.102 13.252 1.633
1577 3 10.101 11.347 1.633
1578 1 11.362 13.529 0.000
1579 1 12.782 13.529 0.000
1580 1 13.492 12.299 0.000
1581 3 13.492 12.299 -1.100
1582 1 14.912 12.299 0.000
1583 3 14.912 12.299 1.100
1584 1 15.622 13.529 0.000
1585 1 17.042 13.529 0.000
1586 2 17.042 13.529 -1.500
1587 3 18.142 13.529 -1.633
1588 3 16.492 14.482 -1.633
1589 3 16.492 12.577 -1.633
1590 1 17.753 12.299 0.000
1591 1 19.173 12.299 0.000
1592 1 19.883 13.529 0.000
1593 1 21.303 13.529 0.000
1594 1 22.013 12.299 0.000
1595 1 23.433 12.299 0.000
1596 1 24.143 13.529 0.000
1597 1 25.564 13.529 0.000
1598 1 26.274 12.299 0.000
1599 1 27.694 12.299 0.000
1600 1 28.404 13.529 0.000
1601 3 28.404 13.529 1.100
1602 1 29.824 13.529 0.000
1603 1 30.534 12.299 0.000
1604 1 31.954 12.299 0.000
1605 1 32.665 13.529 0.000
1606 1 34.085 13.529 0.000
1607 1 34.795 12.299 0.000
1608 3 34.795 12.299 -1.100
1609 1 36.215 12.299 0.000
1610 3 36.215 12.299 1.100
1611 1 36.925 13.529 0.000
1612 1 38.345 13.529 0.000
1613 1 39.055 12.299 0.000
1614 1 40.476 12.299 0.000
1615 1 41.186 13.529 0.000
1616 1 42.606 13.529 0.000
1617 1 43.316 12.299 0.000
1618 1 44.736 12.299 0.000
1619 1 45.446 13.529 0.000
1620 1 46.867 13.529 0.000
1621 1 47.577 12.299 0.000
1622 1 48.997 12.299 0.000
1623 2 48.997 12.299 1.500
1624 3 50.097 12.299 1.633
1625 3 48.447 13.252 1.633
1626 3 48.447 11.347 1.633
1627 1 49.707 13.529 0.000
1628 1 51.127 13.529 0.000
1629 2 51.127 13.529 -1.500
1630 3 52.227 13.529 -1.633
1631 3 50.577 14.482 -1.633
1632 3 50.577 12.577 -1.633
1633 1 51.837 12.299 0.000
1634 1 53.258 12.299 0.000
1635 1 53.968 13.529 0.000
1636 1 55.388 13.529 0.000
1637 3 55.388 13.529 -1.100
1638 1 56.098 12.299 0.000
1639 1 57.518 12.299 0.000
1640 1 58.228 13.529 0.000
1641 1 59.648 13.529 0.000
1642 1 60.358 12.299 0.000
1643 3 60.358 12.299 -1.100
1644 1 61.779 12.299 0.000
1645 1 62.489 13.529 0.000
1646 1 63.909 13.529 0.000
1647 1 64.619 12.299 0.000
1648 1 66.039 12.299 0.000
1649 3 66.039 12.299 1.100
1650 1 66.749 13.529 0.000
1651 1 68.170 13.529 0.000
1652 3 68.170 13.529 -1.100
1653 1 68.880 12.299 0.000
1654 1 70.300 12.299 0.000
1655 1 71.010 13.529 0.000
1656 1 72.430 13.529 0.000
1657 1 73.140 12.299 0.000
1658 1 74.561 12.299 0.000
1659 1 75.271 13.529 0.000
1660 2 75.271 13.529 -1.500
1661 3 76.371 13.529 -1.633
1662 3 74.721 14.482 -1.633
1663 3 74.721 12.577 -1.633
1664 1 76.691 13.529 0.000
1665 1 77.401 12.299 0.000
1666 1 78.821 12.299 0.000
1667 3 78.821 12.299 -1.100
1668 1 79.531 13.529 0.000
1669 1 80.951 13.529 0.000
1670 1 81.662 12.299 0.000
1671 1 83.082 12.299 0.000
1672 1 83.792 13.529 0.000
1673 1 85.212 13.529 0.000
1674 1 85.922 12.299 0.000
1675 2 85.922 12.299 1.500
1676 3 87.022 12.299 1.633
1677 3 85.372 13.252 1.633
1678 3 85.372 11.347 1.633
1679 1 87.342 12.299 0.000
1680 1 88.052 13.529 0.000
1681 1 89.473 13.529 0.000
1682 1 90.183 12.299 0.000
1683 3 90.183 12.299 -1.100
1684 1 91.603 12.299 0.000
1685 1 92.313 13.529 0.000
1686 1 93.733 13.529 0.000
1687 2 93.733 13.529 -1.500
1688 3 94.833 13.529 -1.633
1689 3 93.183 14.482 -1.633
1690 3 93.183 12.577 -1.633
1691 1 94.443 12.299 0.000
1692 1 95.864 12.299 0.000
1693 3 95.864 12.299 -1.100
1694 1 96.574 13.529 0.000
1695 1 97.994 13.529 0.000
1696 1 98.704 12.299 0.000
1697 1 100.124 12.299 0.000
1698 1 100.834 13.529 0.000
1699 1 102.254 13.529 0.000
1700 1 102.965 12.299 0.000
1701 1 104.385 12.299 0.000
1702 1 105.095 13.529 0.000
1703 1 106.515 13.529 0.000
1704 2 106.515 13.529 -1.500
1705 3 107.615 13.529 -1.633
1706 3 105.965 14.482 -1.633
1707 3 105.965 12.577 -1.633
1708 1 107.225 12.299 0.000
1709 3 107.225 12.299 1.100
1710 1 108.645 12.299 0.000
1711 1 109.355 13.529 0.000
1712 1 110.776 13.529 0.000
1713 1 111.486 12.299 0.000
1714 1 112.906 12.299 0.000
1715 1 113.616 13.529 0.000
1716 1 115.036 13.529 0.000
1717 3 115.036 13.529 1.100
1718 1 115.746 12.299 0.000
1719 1 117.167 12.299 0.000
1720 1 117.877 13.529 0.000
1721 1 119.297 13.529 0.000
1722 1 120.007 12.299 0.000
1723 1 121.427 12.299 0.000
1724 1 122.137 13.529 0.000
1725 1 123.557 13.529 0.000
1726 1 124.267 12.299 0.000
1727 1 125.688 12.299 0.000
1728 1 126.398 13.529 0.000
1729 1 127.818 13.529 0.000
1730 1 128.528 12.299 0.000
1731 1 129.948 12.299 0.000
1732 1 130.658 13.529 0.000
1733 1 132.079 13.529 0.000
1734 1 132.789 12.299 0.000
1735 1 134.209 12.299 0.000
1736 1 134.919 13.529 0.000
1737 1 136.339 13.529 0.000
1738 1 137.049 12.299 0.000
1739 1 138.470 12.299 0.000
1740 1 139.180 13.529 0.000
1741 3 139.180 13.529 1.100
1742 1 140.600 13.529 0.000
1743 1 141.310 12.299 0.000
1744 3 141.310 12.299 -1.100
1745 1 142.730 12.299 0.000
1746 1 143.440 13.529 0.000
1747 1 144.860 13.529 0.000
1748 1 145.571 12.299 0.000
1749 1 146.991 12.299 0.000
1750 1 147.701 13.529 0.000
1751 1 149.121 13.529 0.000
1752 1 149.831 12.299 0.000
1753 1 151.251 12.299 0.000
1754 1 151.961 13.529 0.000
1755 3 151.961 13.529 -1.100
1756 1 153.382 13.529 0.000
1757 1 154.092 12.299 0.000
1758 1 155.512 12.299 0.000
1759 1 156.222 13.529 0.000
1760 1 157.642 13.529 0.000
1761 1 158.352 12.299 0.000
1762 1 159.773 12.299 0.000
1763 2 159.773 12.299 1.500
1764 3 160.873 12.299 1.633
1765 3 159.222 13.252 1.633
1766 3 159.222 11.347 1.633
1767 1 160.483 13.529 0.000
1768 1 161.903 13.529 0.000
1769 2 161.903 13.529 -1.500
1770 3 163.003 13.529 -1.633
1771 3 161.353 14.482 -1.633
1772 3 161.353 12.577 -1.633
1773 1 162.613 12.299 0.000
1774 1 164.033 12.299 0.000
1775 1 164.743 13.529 0.000
1776 1 166.163 13.529 0.000
1777 1 166.874 12.299 0.000
1778 1 168.294 12.299 0.000
1779 1 169.004 13.529 0.000
1780 1 170.424 13.529 0.000
1781 1 171.134 12.299 0.000
1782 1 172.554 12.299 0.000
1783 1 173.264 13.529 0.000
1784 1 174.685 13.529 0.000
1785 3 174.685 13.529 1.100
1786 1 175.395 12.299 0.000
1787 1 176.815 12.299 0.000
1788 1 177.525 13.529 0.000
1789 3 177.525 13.529 1.100
1790 1 178.945 13.529 0.000
1791 1 179.655 12.299 0.000
1792 1 181.076 12.299 0.000
1793 3 181.076 12.299 1.100
1794 1 181.786 13.529 0.000
1795 1 183.206 13.529 0.000
1796 2 183.206 13.529 -1.500
1797 3 184.306 13.529 -1.633
1798 3 182.656 14.482 -1.633
1799 3 182.656 12.577 -1.633
1800 1 183.916 12.299 0.000
1801 1 185.336 12.299 0.000
1802 1 186.046 13.529 0.000
1803 1 187.466 13.529 0.000
1804 1 188.177 12.299 0.000
1805 1 189.597 12.299 0.000
1806 1 190.307 13.529 0.000
1807 1 191.727 13.529 0.000
1808 1 192.437 12.299 0.000
1809 1 193.857 12.299 0.000
1810 1 194.567 13.529 0.000
1811 1 195.988 13.529 0.000
1812 1 196.698 12.299 0.000
1813 1 198.118 12.299 0.000
1814 1 198.828 13.529 0.000
1815 1 200.248 13.529 0.000
1816 3 200.248 13.529 -1.100
1817 1 200.958 12.299 0.000
1818 1 202.379 12.299 0.000
1819 1 203.089 13.529 0.000
1820 1 204.509 13.529 0.000
1821 1 205.219 12.299 0.000
1822 3 205.219 12.299 1.100
1823 1 206.639 12.299 0.000
1824 1 207.349 13.529 0.000
1825 1 208.769 13.529 0.000
1826 1 209.480 12.299 0.000
1827 1 210.900 12.299 0.000
1828 3 210.900 12.299 -1.100
1829 1 211.610 13.529 0.000
1830 3 211.610 13.529 -1.100
1831 1 213.030 13.529 0.000
1832 3 213.030 13.529 -1.100
1833 1 213.740 12.299 0.000
1834 2 213.740 12.299 1.500
1835 3 214.840 12.299 1.633
1836 3 213.190 13.252 1.633
1837 3 213.190 11.347 1.633
1838 1 215.160 12.299 0.000
1839 1 215.870 13.529 0.000
1840 1 217.291 13.529 0.000
1841 1 218.001 12.299 0.000
1842 1 219.421 12.299 0.000
1843 1 220.131 13.529 0.000
1844 1 221.551 13.529 0.000
1845 1 222.261 12.299 0.000
1846 1 223.681 12.299 0.000
1847 1 224.392 13.529 0.000
1848 1 225.812 13.529 0.000
1849 1 226.522 12.299 0.000
1850 1 227.942 12.299 0.000
1851 1 228.652 13.529 0.000
1852 1 230.072 13.529 0.000
1853 1 230.783 12.299 0.000
1854 1 232.203 12.299 0.000
1855 1 232.913 13.529 0.000
1856 2 232.913 13.529 -1.500
1857 3 234.013 13.529 -1.633
1858 3 232.363 14.482 -1.633
1859 3 232.363 12.577 -1.633
1860 1 234.333 13.529 0.000
1861 1 235.043 12.299 0.000
1862 1 236.463 12.299 0.000
1863 1 237.173 13.529 0.000
1864 1 238.594 13.529 0.000
1865 1 239.304 12.299 0.000
1866 1 240.724 12.299 0.000
1867 1 241.434 13.529 0.000
1868 1 242.854 13.529 0.000
1869 1 243.564 12.299 0.000
1870 1 244.985 12.299 0.000
1871 3 244.985 12.299 -1.100
1872 1 245.695 13.529 0.000
1873 1 247.115 13.529 0.000
1874 1 247.825 12.299 0.000
1875 1 249.245 12.299 0.000
1876 1 249.955 13.529 0.000
1877 1 0.000 15.989 0.000
1878 1 0.710 14.759 0.000
1879 3 0.710 14.759 1.100
1880 1 2.130 14.759 0.000
1881 1 2.840 15.989 0.000
1882 1 4.261 15.989 0.000
1883 1 4.971 14.759 0.000
1884 3 4.971 14.759 1.100
1885 1 6.391 14.759 0.000
1886 1 7.101 15.989 0.000
1887 1 8.521 15.989 0.000
1888 1 9.231 14.759 0.000
1889 1 10.652 14.759 0.000
1890 3 10.652 14.759 1.100
1891 1 11.362 15.989 0.000
1892 1 12.782 15.989 0.000
1893 1 13.492 14.759 0.000
1894 1 14.912 14.759 0.000
1895 1 15.622 15.989 0.000
1896 1 17.042 15.989 0.000
1897 1 17.753 14.759 0.000
1898 1 19.173 14.759 0.000
1899 3 19.173 14.759 1.100
1900 1 19.883 15.989 0.000
1901 1 21.303 15.989 0.000
1902 2 21.303 15.989 -1.500
1903 3 22.403 15.989 -1.633
1904 3 20.753 16.942 -1.633
1905 3 20.753 15.036 -1.633
1906 1 22.013 14.759 0.000
1907 1 23.433 14.759 0.000
1908 1 24.143 15.989 0.000
1909 1 25.564 15.989 0.000
1910 1 26.274 14.759 0.000
1911 1 27.694 14.759 0.000
1912 3 27.694 14.759 1.100
1913 1 28.404 15.989 0.000
1914 1 29.824 15.989 0.000
1915 1 30.534 14.759 0.000
1916 1 31.954 14.759 0.000
1917 1 32.665 15.989 0.000
1918 1 34.085 15.989 0.000
1919 1 34.795 14.759 0.000
1920 1 36.215 14.759 0.000
1921 3 36.215 14.759 -1.100
1922 1 36.925 15.989 0.000
1923 1 38.345 15.989 0.000
1924 3 38.345 15.989 1.100
1925 1 39.055 14.759 0.000
1926 1 40.476 14.759 0.000
1927 1 41.186 15.989 0.000
1928 1 42.606 15.989 0.000
1929 2 42.606 15.989 -1.500
1930 3 43.706 15.989 -1.633
1931 3 42.056 16.942 -1.633
1932 3 42.056 15.036 -1.633
1933 1 43.316 14.759 0.000
1934 1 44.736 14.759 0.000
1935 1 45.446 15.989 0.000
1936 1 46.867 15.989 0.000
1937 1 47.577 14.759 0.000
1938 2 47.577 14.759 -1.500
1939 3 48.677 14.759 -1.633
1940 3 47.027 15.712 -1.633
1941 3 47.027 13.807 -1.633
1942 1 48.997 14.759 0.000
1943 1 49.707 15.989 0.000
1944 1 51.127 15.989 0.000
1945 1 51.837 14.759 0.000
1946 1 53.258 14.759 0.000
1947 1 53.968 15.989 0.000
1948 1 55.388 15.989 0.000
1949 1 56.098 14.759 0.000
1950 1 57.518 14.759 0.000
1951 2 57.518 14.759 -1.500
1952 3 58.618 14.759 -1.633
1953 3 56.968 15.712 -1.633
1954 3 56.968 13.807 -1.633
1955 1 58.228 15.989 0.000
1956 1 59.648 15.989 0.000
1957 1 60.358 14.759 0.000
1958 1 61.779 14.759 0.000
1959 2 61.779 14.759 -1.500
1960 3 62.879 14.759 -1.633
1961 3 61.229 15.712 -1.633
1962 3 61.229 13.807 -1.633
1963 1 62.489 15.989 0.000
1964 1 63.909 15.989 0.000
1965 1 64.619 14.759 0.000
1966 1 66.039 14.759 0.000
1967 1 66.749 15.989 0.000
1968 1 68.170 15.989 0.000
1969 3 68.170 15.989 1.100
1970 1 68.880 14.759 0.000
1971 1 70.300 14.759 0.000
1972 1 71.010 15.989 0.000
1973 1 72.430 15.989 0.000
1974 1 73.140 14.759 0.000
1975 1 74.561 14.759 0.000
1976 1 75.271 15.989 0.000
1977 1 76.691 15.989 0.000
1978 1 77.401 14.759 0.000
1979 1 78.821 14.759 0.000
1980 1 79.531 15.989 0.000
1981 1 80.951 15.989 0.000
1982 1 81.662 14.759 0.000
1983 1 83.082 14.759 0.000
1984 1 83.792 15.989 0.000
1985 1 85.212 15.989 0.000
1986 1 85.922 14.759 0.000
1987 1 87.342 14.759 0.000
1988 1 88.052 15.989 0.000
1989 1 89.473 15.989 0.000
1990 1 90.183 14.759 0.000
1991 1 91.603 14.759 0.000
1992 1 92.313 15.989 0.000
1993 1 93.733 15.989 0.000
1994 1 94.443 14.759 0.000
1995 1 95.864 14.759 0.000
1996 1 96.574 15.989 0.000
1997 1 97.994 15.989 0.000
1998 1 98.704 14.759 0.000
1999 1 100.124 14.759 0.000
2000 1 100.834 15.989 0.000
2001 1 102.254 15.989 0.000
2002 1 102.965 14.759 0.000
2003 1 104.385 14.759 0.000
2004 2 104.385 14.759 1.500
2005 3 105.485 14.759 1.633
2006 3 103.835 15.712 1.633
2007 3 103.835 13.807 1.633
2008 1 105.095 15.989 0.000
2009 1 106.515 15.989 0.000
2010 1 107.225 14.759 0.000
2011 1 108.645 14.759 0.000
2012 1 109.355 15.989 0.000
2013 1 110.776 15.989 0.000
2014 2 110.776 15.989 -1.500
2015 3 111.876 15.989 -1.633
2016 3 110.226 16.942 -1.633
2017 3 110.226 15.036 -1.633
2018 1 111.486 14.759 0.000
2019 1 112.906 14.759 0.000
2020 1 113.616 15.989 0.000
2021 1 115.036 15.989 0.000
2022 1 115.746 14.759 0.000
2023 1 117.167 14.759 0.000
2024 1 117.877 15.989 0.000
2025 1 119.297 15.989 0.000
2026 1 120.007 14.759 0.000
2027 1 121.427 14.759 0.000
2028 2 121.427 14.759 1.500
2029 3 122.527 14.759 1.633
2030 3 120.877 15.712 1.633
2031 3 120.877 13.807 1.633
2032 1 122.137 15.989 0.000
2033 1 123.557 15.989 0.000
2034 1 124.267 14.759 0.000
2035 1 125.688 14.759 0.000
2036 1 126.398 15.989 0.000
2037 1 127.818 15.989 0.000
2038 3 127.818 15.989 -1.100
2039 1 128.528 14.759 0.000
2040 1 129.948 14.759 0.000
2041 1 130.658 15.989 0.000
2042 1 132.079 15.989 0.000
2043 2 132.079 15.989 -1.500
2044 3 133.179 15.989 -1.633
2045 3 131.529 16.942 -1.633
2046 3 131.529 15.036 -1.633
2047 1 132.789 14.759 0.000
2048 1 134.209 14.759 0.000
2049 1 134.919 15.989 0.000
2050 1 136.339 15.989 0.000
2051 2 136.339 15.989 1.500
2052 3 137.439 15.989 1.633
2053 3 135.789 16.942 1.633
2054 3 135.789 15.036 1.633
2055 1 137.049 14.759 0.000
2056 1 138.470 14.759 0.000
2057 3 138.470 14.759 -1.100
2058 1 139.180 15.989 0.000
2059 1 140.600 15.989 0.000
2060 1 141.310 14.759 0.000
2061 1 142.730 14.759 0.000
2062 1 143.440 15.989 0.000
2063 1 144.860 15.989 0.000
2064 1 145.571 14.759 0.000
2065 1 146.991 14.759 0.000
2066 1 147.701 15.989 0.000
2067 1 149.121 15.989 0.000
2068 2 149.121 15.989 1.500
2069 3 150.221 15.989 1.633
2070 3 148.571 16.942 1.633
2071 3 148.571 15.036 1.633
2072 1 149.831 14.759 0.000
2073 1 151.251 14.759 0.000
2074 1 151.961 15.989 0.000
2075 1 153.382 15.989 0.000
2076 1 154.092 14.759 0.000
2077 2 154.092 14.759 1.500
2078 3 155.192 14.759 1.633
2079 3 153.542 15.712 1.633
2080 3 153.542 13.807 1.633
2081 1 155.512 14.759 0.000
2082 1 156.222 15.989 0.000
2083 2 156.222 15.989 -1.500
2084 3 157.322 15.989 -1.633
2085 3 155.672 16.942 -1.633
2086 3 155.672 15.036 -1.633
2087 1 157.642 15.989 0.000
2088 1 158.352 14.759 0.000
2089 1 159.773 14.759 0.000
2090 1 160.483 15.989 0.000
2091 1 161.903 15.989 0.000
2092 1 162.613 14.759 0.000
2093 1 164.033 14.759 0.000
2094 1 164.743 15.989 0.000
2095 1 166.163 15.989 0.000
2096 1 166.874 14.759 0.000
2097 3 166.874 14.759 -1.100
2098 1 168.294 14.759 0.000
2099 1 169.004 15.989 0.000
2100 1 170.424 15.989 0.000
2101 1 171.134 14.759 0.000
2102 1 172.554 14.759 0.000
2103 3 172.554 14.759 -1.100
2104 1 173.264 15.989 0.000
2105 1 174.685 15.989 0.000
2106 1 175.395 14.759 0.000
2107 1 176.815 14.759 0.000
2108 1 177.525 15.989 0.000
2109 3 177.525 15.989 1.100
2110 1 178.945 15.989 0.000
2111 1 179.655 14.759 0.000
2112 1 181.076 14.759 0.000
2113 1 181.786 15.989 0.000
2114 1 183.206 15.989 0.000
2115 3 183.206 15.989 -1.100
2116 1 183.916 14.759 0.000
2117 1 185.336 14.759 0.000
2118 1 186.046 15.989 0.000
2119 1 187.466 15.989 0.000
2120 1 188.177 14.759 0.000
2121 3 188.177 14.759 -1.100
2122 1 189.597 14.759 0.000
2123 1 190.307 15.989 0.000
2124 1 191.727 15.989 0.000
2125 3 191.727 15.989 -1.100
2126 1 192.437 14.759 0.000
2127 1 193.857 14.759 0.000
2128 1 194.567 15.989 0.000
2129 1 195.988 15.989 0.000
2130 1 196.698 14.759 0.000
2131 1 198.118 14.759 0.000
2132 1 198.828 15.989 0.000
2133 1 200.248 15.989 0.000
2134 1 200.958 14.759 0.000
2135 1 202.379 14.759 0.000
2136 3 202.379 14.759 1.100
2137 1 203.089 15.989 0.000
2138 1 204.509 15.989 0.000
2139 1 205.219 14.759 0.000
2140 1 206.639 14.759 0.000
2141 1 207.349 15.989 0.000
2142 1 208.769 15.989 0.000
2143 1 209.480 14.759 0.000
2144 1 210.900 14.759 0.000
2145 1 211.610 15.989 0.000
2146 1 213.030 15.989 0.000
2147 1 213.740 14.759 0.000
2148 3 213.740 14.759 1.100
2149 1 215.160 14.759 0.000
2150 1 215.870 15.989 0.000
2151 3 215.870 15.989 1.100
2152 1 217.291 15.989 0.000
2153 1 218.001 14.759 0.000
2154 1 219.421 14.759 0.000
2155 1 220.131 15.989 0.000
2156 1 221.551 15.989 0.000
2157 1 222.261 14.759 0.000
2158 1 223.681 14.759 0.000
2159 3 223.681 14.759 -1.100
2160 1 224.392 15.989 0.000
2161 1 225.812 15.989 0.000
2162 3 225.812 15.989 1.100
2163 1 226.522 14.759 0.000
2164 3 226.522 14.759 1.100
2165 1 227.942 14.759 0.000
2166 1 228.652 15.989 0.000
2167 2 228.652 15.989 -1.500
2168 3 229.752 15.989 -1.633
2169 3 228.102 16.942 -1.633
2170 3 228.102 15.036 -1.633
2171 1 230.072 15.989 0.000
2172 1 230.783 14.759 0.000
2173 1 232.203 14.759 0.000
2174 3 232.203 14.759 1.100
2175 1 232.913 15.989 0.000
2176 1 234.333 15.989 0.000
2177 1 235.043 14.759 0.000
2178 2 235.043 14.759 1.500
2179 3 236.143 14.759 1.633
2180 3 234.493 15.712 1.633
2181 3 234.493 13.807 1.633
2182 1 236.463 14.759 0.000
2183 1 237.173 15.989 0.000
2184 1 238.594 15.989 0.000
2185 1 239.304 14.759 0.000
2186 1 240.724 14.759 0.000
2187 3 240.724 14.759 1.100
2188 1 241.434 15.989 0.000
2189 3 241.434 15.989 1.100
2190 1 242.854 15.989 0.000
2191 3 242.854 15.989 1.100
2192 1 243.564 14.759 0.000
2193 1 244.985 14.759 0.000
2194 1 245.695 15.989 0.000
2195 2 245.695 15.989 1.500
2196 3 246.795 15.989 1.633
2197 3 245.145 16.942 1.633
2198 3 245.145 15.036 1.633
2199 1 247.115 15.989 0.000
2200 1 247.825 14.759 0.000
2201 1 249.245 14.759 0.000
2202 1 249.955 15.989 0.000
2203 1 0.000 18.449 0.000
2204 1 0.710 17.219 0.000
2205 1 2.130 17.219 0.000
2206 2 2.130 17.219 -1.500
2207 3 3.230 17.219 -1.633
2208 3 1.580 18.172 -1.633
2209 3 1.580 16.266 -1.633
2210 1 2.840 18.449 0.000
2211 1 4.261 18.449 0.000
2212 1 4.971 17.219 0.000
2213 1 6.391 17.219 0.000
2214 2 6.391 17.219 1.500
2215 3 7.491 17.219 1.633
2216 3 5.841 18.172 1.633
2217 3 5.841 16.266 1.633
2218 1 7.101 18.449 0.000
2219 1 8.521 18.449 0.000
2220 1 9.231 17.219 0.000
2221 1 10.652 17.219 0.000
2222 1 11.362 18.449 0.000
2223 2 11.362 18.449 -1.500
2224 3 12.462 18.449 -1.633
2225 3 10.812 19.402 -1.633
2226 3 10.812 17.496 -1.633
2227 1 12.782 18.449 0.000
2228 3 12.782 18.449 1.100
2229 1 13.492 17.219 0.000
2230 1 14.912 17.219 0.000
2231 1 15.622 18.449 0.000
2232 1 17.042 18.449 0.000
2233 1 17.753 17.219 0.000
2234 1 19.173 17.219 0.000
2235 3 19.173 17.219 1.100
2236 1 19.883 18.449 0.000
2237 3 19.883 18.449 1.100
2238 1 21.303 18.449 0.000
2239 1 22.013 17.219 0.000
2240 1 23.433 17.219 0.000
2241 1 24.143 18.449 0.000
2242 1 25.564 18.449 0.000
2243 1 26.274 17.219 0.000
2244 1 27.694 17.219 0.000
2245 1 28.404 18.449 0.000
2246 3 28.404 18.449 -1.100
2247 1 29.824 18.449 0.000
2248 1 30.534 17.219 0.000
2249 1 31.954 17.219 0.000
2250 3 31.954 17.219 1.100
2251 1 32.665 18.449 0.000
2252 1 34.085 18.449 0.000
2253 1 34.795 17.219 0.000
2254 1 36.215 17.219 0.000
2255 2 36.215 17.219 1.500
2256 3 37.315 17.219 1.633
2257 3 35.665 18.172 1.633
2258 3 35.665 16.266 1.633
2259 1 36.925 18.449 0.000
2260 1 38.345 18.449 0.000
2261 1 39.055 17.219 0.000
2262 1 40.476 17.219 0.000
2263 1 41.186 18.449 0.000
2264 1 42.606 18.449 0.000
2265 1 43.316 17.219 0.000
2266 1 44.736 17.219 0.000
2267 1 45.446 18.449 0.000
2268 1 46.867 18.449 0.000
2269 3 46.867 18.449 1.100
2270 1 47.577 17.219 0.000
2271 1 48.997 17.219 0.000
2272 1 49.707 18.449 0.000
2273 1 51.127 18.449 0.000
2274 1 51.837 17.219 0.000
2275 1 53.258 17.219 0.000
2276 1 53.968 18.449 0.000
2277 1 55.388 18.449 0.000
2278 1 56.098 17.219 0.000
2279 1 57.518 17.219 0.000
2280 1 58.228 18.449 0.000
2281 1 59.648 18.449 0.000
2282 3 59.648 18.449 1.100
2283 1 60.358 17.219 0.000
2284 1 61.779 17.219 0.000
2285 1 62.489 18.449 0.000
2286 1 63.909 18.449 0.000
2287 1 64.619 17.219 0.000
2288 1 66.039 17.219 0.000
2289 1 66.749 18.449 0.000
2290 3 66.749 18.449 1.100
2291 1 68.170 18.449 0.000
2292 1 68.880 17.219 0.000
2293 1 70.300 17.219 0.000
2294 1 71.010 18.449 0.000
2295 2 71.010 18.449 1.500
2296 3 72.110 18.449 1.633
2297 3 70.460 19.402 1.633
2298 3 70.460 17.496 1.633
2299 1 72.430 18.449 0.000
2300 1 73.140 17.219 0.000
2301 1 74.561 17.219 0.000
2302 1 75.271 18.449 0.000
2303 1 76.691 18.449 0.000
2304 3 76.691 18.449 -1.100
2305 1 77.401 17.219 0.000
2306 1 78.821 17.219 0.000
2307 1 79.531 18.449 0.000
2308 1 80.951 18.449 0.000
2309 1 81.662 17.219 0.000
2310 2 81.662 17.219 -1.500
2311 3 82.761 17.219 -1.633
2312 3 81.112 18.172 -1.633
2313 3 81.112 16.266 -1.633
2314 1 83.082 17.219 0.000
2315 1 83.792 18.449 0.000
2316 3 83.792 18.449 -1.100
2317 1 85.212 18.449 0.000
2318 1 85.922 17.219 0.000
2319 3 85.922 17.219 1.100
2320 1 87.342 17.219 0.000
2321 1 88.052 18.449 0.000
2322 3 88.052 18.449 -1.100
2323 1 89.473 18.449 0.000
2324 1 90.183 17.219 0.000
2325 1 91.603 17.219 0.000
2326 1 92.313 18.449 0.000
2327 1 93.733 18.449 0.000
2328 1 94.443 17.219 0.000
2329 1 95.864 17.219 0.000
2330 1 96.574 18.449 0.000
2331 3 96.574 18.449 -1.100
2332 1 97.994 18.449 0.000
2333 1 98.704 17.219 0.000
2334 1 100.124 17.219 0.000
2335 1 100.834 18.449 0.000
2336 3 100.834 18.449 1.100
2337 1 102.254 18.449 0.000
2338 1 102.965 17.219 0.000
2339 1 104.385 17.219 0.000
2340 1 105.095 18.449 0.000
2341 1 106.515 18.449 0.000
2342 1 107.225 17.219 0.000
2343 2 107.225 17.219 1.500
2344 3 108.325 17.219 1.633
2345 3 106.675 18.172 1.633
2346 3 106.675 16.266 1.633
2347 1 108.645 17.219 0.000
2348 1 109.355 18.449 0.000
2349 3 109.355 18.449 1.100
2350 1 110.776 18.449 0.000
2351 1 111.486 17.219 0.000
2352 1 112.906 17.219 0.000
2353 1 113.616 18.449 0.000
2354 1 115.036 18.449 0.000
2355 3 115.036 18.449 1.100
2356 1 115.746 17.219 0.000
2357 1 117.167 17.219 0.000
2358 1 117.877 18.449 0.000
2359 2 117.877 18.449 -1.500
2360 3 118.977 18.449 -1.633
2361 3 117.327 19.402 -1.633
2362 3 117.327 17.496 -1.633
2363 1 119.297 18.449 0.000
2364 1 120.007 17.219 0.000
2365 1 121.427 17.219 0.000
2366 2 121.427 17.219 -1.500
2367 3 122.527 17.219 -1.633
2368 3 120.877 18.172 -1.633
2369 3 120.877 16.266 -1.633
2370 1 122.137 18.449 0.000
2371 1 123.557 18.449 0.000
2372 2 123.557 18.449 1.500
2373 3 124.657 18.449 1.633
2374 3 123.007 19.402 1.633
2375 3 123.007 17.496 1.633
2376 1 124.267 17.219 0.000
2377 1 125.688 17.219 0.000
2378 1 126.398 18.449 0.000
2379 1 127.818 18.449 0.000
2380 1 128.528 17.219 0.000
2381 3 128.528 17.219 -1.100
2382 1 129.948 17.219 0.000
2383 1 130.658 18.449 0.000
2384 1 132.079 18.449 0.000
2385 1 132.789 17.219 0.000
2386 1 134.209 17.219 0.000
2387 1 134.919 18.449 0.000
2388 1 136.339 18.449 0.000
2389 1 137.049 17.219 0.000
2390 1 138.470 17.219 0.000
2391 1 139.180 18.449 0.000
2392 1 140.600 18.449 0.000
2393 1 141.310 17.219 0.000
2394 1 142.730 17.219 0.000
2395 1 143.440 18.449 0.000
2396 1 144.860 18.449 0.000
2397 3 144.860 18.449 1.100
2398 1 145.571 17.219 0.000
2399 1 146.991 17.219 0.000
2400 1 147.701 18.449 0.000
2401 1 149.121 18.449 0.000
2402 1 149.831 17.219 0.000
2403 1 151.251 17.219 0.000
2404 1 151.961 18.449 0.000
2405 1 153.382 18.449 0.000
2406 1 154.092 17.219 0.000
2407 1 155.512 17.219 0.000
2408 1 156.222 18.449 0.000
2409 1 157.642 18.449 0.000
2410 1 158.352 17.219 0.000
2411 1 159.773 17.219 0.000
2412 1 160.483 18.449 0.000
2413 3 160.483 18.449 -1.100
2414 1 161.903 18.449 0.000
2415 1 162.613 17.219 0.000
2416 1 164.033 17.219 0.000
2417 1 164.743 18.449 0.000
2418 1 166.163 18.449 0.000
2419 1 166.874 17.219 0.000
2420 3 166.874 17.219 -1.100
2421 1 168.294 17.219 0.000
2422 3 168.294 17.219 1.100
2423 1 169.004 18.449 0.000
2424 1 170.424 18.449 0.000
2425 1 171.134 17.219 0.000
2426 1 172.554 17.219 0.000
2427 1 173.264 18.449 0.000
2428 1 174.685 18.449 0.000
2429 1 175.395 17.219 0.000
2430 3 175.395 17.219 -1.100
2431 1 176.815 17.219 0.000
2432 1 177.525 18.449 0.000
2433 1 178.945 18.449 0.000
2434 1 179.655 17.219 0.000
2435 1 181.076 17.219 0.000
2436 3 181.076 17.219 1.100
2437 1 181.786 18.449 0.000
2438 1 183.206 18.449 0.000
2439 1 183.916 17.219 0.000
2440 1 185.336 17.219 0.000
2441 1 186.046 18.449 0.000
2442 1 187.466 18.449 0.000
2443 3 187.466 18.449 -1.100
2444 1 188.177 17.219 0.000
2445 3 188.177 17.219 1.100
2446 1 189.597 17.219 0.000
2447 1 190.307 18.449 0.000
2448 3 190.307 18.449 -1.100
2449 1 191.727 18.449 0.000
2450 1 192.437 17.219 0.000
2451 1 193.857 17.219 0.000
2452 2 193.857 17.219 1.500
2453 3 194.957 17.219 1.633
2454 3 193.307 18.172 1.633
2455 3 193.307 16.266 1.633
2456 1 194.567 18.449 0.000
2457 1 195.988 18.449 0.000
2458 1 196.698 17.219 0.000
2459 1 198.118 17.219 0.000
2460 1 198.828 18.449 0.000
2461 1 200.248 18.449 0.000
2462 1 200.958 17.219 0.000
2463 1 202.379 17.219 0.000
2464 1 203.089 18.449 0.000
2465 1 204.509 18.449 0.000
2466 3 204.509 18.449 1.100
2467 1 205.219 17.219 0.000
2468 2 205.219 17.219 -1.500
2469 3 206.319 17.219 -1.633
2470 3 204.669 18.172 -1.633
2471 3 204.669 16.266 -1.633
2472 1 206.639 17.219 0.000
2473 1 207.349 18.449 0.000
2474 1 208.769 18.449 0.000
2475 1 209.480 17.219 0.000
2476 1 210.900 17.219 0.000
2477 1 211.610 18.449 0.000
2478 1 213.030 18.449 0.000
2479 1 213.740 17.219 0.000
2480 3 213.740 17.219 1.100
2481 1 215.160 17.219 0.000
2482 3 215.160 17.219 1.100
2483 1 215.870 18.449 0.000
2484 1 217.291 18.449 0.000
2485 1 218.001 17.219 0.000
2486 1 219.421 17.219 0.000
2487 1 220.131 18.449 0.000
2488 1 221.551 18.449 0.000
2489 1 222.261 17.219 0.000
2490 1 223.681 17.219 0.000
2491 1 224.392 18.449 0.000
2492 3 224.392 18.449 1.100
2493 1 225.812 18.449 0.000
2494 2 225.812 18.449 -1.500
2495 3 226.912 18.449 -1.633
2496 3 225.262 19.402 -1.633
2497 3 225.262 17.496 -1.633
2498 1 226.522 17.219 0.000
2499 1 227.942 17.219 0.000
2500 1 228.652 18.449 0.000
2501 1 230.072 18.449 0.000
2502 1 230.783 17.219 0.000
2503 1 232.203 17.219 0.000
2504 2 232.203 17.219 -1.500
2505 3 233.303 17.219 -1.633
2506 3 231.653 18.172 -1.633
2507 3 231.653 16.266 -1.633
2508 1 232.913 18.449 0.000
2509 1 234.333 18.449 0.000
2510 1 235.043 17.219 0.000
2511 1 236.463 17.219 0.000
2512 1 237.173 18.449 0.000
2513 1 238.594 18.449 0.000
2514 3 238.594 18.449 1.100
2515 1 239.304 17.219 0.000
2516 3 239.304 17.219 -1.100
2517 1 240.724 17.219 0.000
2518 1 241.434 18.449 0.000
2519 3 241.434 18.449 1.100
2520 1 242.854 18.449 0.000
2521 1 243.564 17.219 0.000
2522 1 244.985 17.219 0.000
2523 1 245.695 18.449 0.000
2524 3 245.695 18.449 -1.100
2525 1 247.115 18.449 0.000
2526 1 247.825 17.219 0.000
2527 1 249.245 17.219 0.000
2528 1 249.955 18.449 0.000
2529 2 249.955 18.449 1.500
2530 3 251.055 18.449 1.633
2531 3 249.405 19.402 1.633
2532 3 249.405 17.496 1.633
2533 1 0.000 20.909 0.000
2534 1 0.710 19.679 0.000
2535 1 2.130 19.679 0.000
2536 1 2.840 20.909 0.000
2537 1 4.261 20.909 0.000
2538 3 4.261 20.909 -1.100
2539 1 4.971 19.679 0.000
2540 1 6.391 19.679 0.000
2541 1 7.101 20.909 0.000
2542 1 8.521 20.909 0.000
2543 3 8.521 20.909 1.100
2544 1 9.231 19.679 0.000
2545 1 10.652 19.679 0.000
2546 1 11.362 20.909 0.000
2547 2 11.362 20.909 1.500
2548 3 12.462 20.909 1.633
2549 3 10.812 21.861 1.633
2550 3 10.812 19.956 1.633
2551 1 12.782 20.909 0.000
2552 1 13.492 19.679 0.000
2553 1 14.912 19.679 0.000
2554 1 15.622 20.909 0.000
2555 3 15.622 20.909 -1.100
2556 1 17.042 20.909 0.000
2557 1 17.753 19.679 0.000
2558 1 19.173 19.679 0.000
2559 2 19.173 19.679 -1.500
2560 3 20.273 19.679 -1.633
2561 3 18.623 20.631 -1.633
2562 3 18.623 18.726 -1.633
2563 1 19.883 20.909 0.000
2564 1 21.303 20.909 0.000
2565 1 22.013 19.679 0.000
2566 1 23.433 19.679 0.000
2567 1 24.143 20.909 0.000
2568 2 24.143 20.909 1.500
2569 3 25.243 20.909 1.633
2570 3 23.593 21.861 1.633
2571 3 23.593 19.956 1.633
2572 1 25.564 20.909 0.000
2573 1 26.274 19.679 0.000
2574 1 27.694 19.679 0.000
2575 3 27.694 19.679 -1.100
2576 1 28.404 20.909 0.000
2577 1 29.824 20.909 0.000
2578 2 29.824 20.909 1.500
2579 3 30.924 20.909 1.633
2580 3 29.274 21.861 1.633
2581 3 29.274 19.956 1.633
2582 1 30.534 19.679 0.000
2583 1 31.954 19.679 0.000
2584 1 32.665 20.909 0.000
2585 1 34.085 20.909 0.000
2586 1 34.795 19.679 0.000
2587 3 34.795 19.679 1.100
2588 1 36.215 19.679 0.000
2589 2 36.215 19.679 -1.500
2590 3 37.315 19.679 -1.633
2591 3 35.665 20.631 -1.633
2592 3 35.665 18.726 -1.633
2593 1 36.925 20.909 0.000
2594 3 36.925 20.909 1.100
2595 1 38.345 20.909 0.000
2596 1 39.055 19.679 0.000
2597 1 40.476 19.679 0.000
2598 1 41.186 20.909 0.000
2599 1 42.606 20.909 0.000
2600 1 43.316 19.679 0.000
2601 1 44.736 19.679 0.000
2602 1 45.446 20.909 0.000
2603 1 46.867 20.909 0.000
2604 2 46.867 20.909 1.500
2605 3 47.967 20.909 1.633
2606 3 46.317 21.861 1.633
2607 3 46.317 19.956 1.633
2608 1 47.577 19.679 0.000
2609 1 48.997 19.679 0.000
2610 1 49.707 20.909 0.000
2611 1 51.127 20.909 0.000
2612 1 51.837 19.679 0.000
2613 2 51.837 19.679 -1.500
2614 3 52.937 19.679 -1.633
2615 3 51.287 20.631 -1.633
2616 3 51.287 18.726 -1.633
2617 1 53.258 19.679 0.000
2618 1 53.968 20.909 0.000
2619 1 55.388 20.909 0.000
2620 1 56.098 19.679 0.000
2621 1 57.518 19.679 0.000
2622 1 58.228 20.909 0.000
2623 1 59.648 20.909 0.000
2624 1 60.358 19.679 0.000
2625 1 61.779 19.679 0.000
2626 1 62.489 20.909 0.000
2627 1 63.909 20.909 0.000
2628 3 63.909 20.909 -1.100
2629 1 64.619 19.679 0.000
2630 1 66.039 19.679 0.000
2631 1 66.749 20.909 0.000
2632 1 68.170 20.909 0.000
2633 1 68.880 19.679 0.000
2634 1 70.300 19.679 0.000
2635 1 71.010 20.909 0.000
2636 1 72.430 20.909 0.000
2637 1 73.140 19.679 0.000
2638 3 73.140 19.679 1.100
2639 1 74.561 19.679 0.000
2640 1 75.271 20.909 0.000
2641 1 76.691 20.909 0.000
2642 2 76.691 20.909 -1.500
2643 3 77.791 20.909 -1.633
2644 3 76.141 21.861 -1.633
2645 3 76.141 19.956 -1.633
2646 1 77.401 19.679 0.000
2647 1 78.821 19.679 0.000
2648 1 79.531 20.909 0.000
2649 1 80.951 20.909 0.000
2650 1 81.662 19.679 0.000
2651 3 81.662 19.679 1.100
2652 1 83.082 19.679 0.000
2653 1 83.792 20.909 0.000
2654 2 83.792 20.909 -1.500
2655 3 84.892 20.909 -1.633
2656 3 83.242 21.861 -1.633
2657 3 83.242 19.956 -1.633
2658 1 85.212 20.909 0.000
2659 1 85.922 19.679 0.000
2660 1 87.342 19.679 0.000
2661 3 87.342 19.679 1.100
2662 1 88.052 20.909 0.000
2663 1 89.473 20.909 0.000
2664 2 89.473 20.909 1.500
2665 3 90.573 20.909 1.633
2666 3 88.923 21.861 1.633
2667 3 88.923 19.956 1.633
2668 1 90.183 19.679 0.000
2669 1 91.603 19.679 0.000
2670 1 92.313 20.909 0.000
2671 1 93.733 20.909 0.000
2672 2 93.733 20.909 1.500
2673 3 94.833 20.909 1.633
2674 3 93.183 21.861 1.633
2675 3 93.183 19.956 1.633
2676 1 94.443 19.679 0.000
2677 1 95.864 19.679 0.000
2678 3 95.864 19.679 1.100
2679 1 96.574 20.909 0.000
2680 1 97.994 20.909 0.000
2681 3 97.994 20.909 -1.100
2682 1 98.704 19.679 0.000
2683 1 100.124 19.679 0.000
2684 1 100.834 20.909 0.000
2685 1 102.254 20.909 0.000
2686 1 102.965 19.679 0.000
2687 1 104.385 19.679 0.000
2688 2 104.385 19.679 1.500
2689 3 105.485 19.679 1.633
2690 3 103.835 20.631 1.633
2691 3 103.835 18.726 1.633
2692 1 105.095 20.909 0.000
2693 3 105.095 20.909 -1.100
2694 1 106.515 20.909 0.000
2695 1 107.225 19.679 0.000
2696 3 107.225 19.679 -1.100
2697 1 108.645 19.679 0.000
2698 3 108.645 19.679 -1.100
2699 1 109.355 20.909 0.000
2700 1 110.776 20.909 0.000
2701 1 111.486 19.679 0.000
2702 1 112.906 19.679 0.000
2703 1 113.616 20.909 0.000
2704 1 115.036 20.909 0.000
2705 1 115.746 19.679 0.000
2706 1 117.167 19.679 0.000
2707 1 117.877 20.909 0.000
2708 3 117.877 20.909 1.100
2709 1 119.297 20.909 0.000
2710 3 119.297 20.909 -1.100
2711 1 120.007 19.679 0.000
2712 1 121.427 19.679 0.000
2713 1 122.137 20.909 0.000
2714 1 123.557 20.909 0.000
2715 1 124.267 19.679 0.000
2716 1 125.688 19.679 0.000
2717 1 126.398 20.909 0.000
2718 1 127.818 20.909 0.000
2719 1 128.528 19.679 0.000
2720 3 128.528 19.679 -1.100
2721 1 129.948 19.679 0.000
2722 1 130.658 20.909 0.000
2723 1 132.079 20.909 0.000
2724 1 132.789 19.679 0.000
2725 1 134.209 19.679 0.000
2726 2 134.209 19.679 1.500
2727 3 135.309 19.679 1.633
2728 3 133.659 20.631 1.633
2729 3 133.659 18.726 1.633
2730 1 134.919 20.909 0.000
2731 1 136.339 20.909 0.000
2732 1 137.049 19.679 0.000
2733 1 138.470 19.679 0.000
2734 1 139.180 20.909 0.000
2735 3 139.180 20.909 -1.100
2736 1 140.600 20.909 0.000
2737 1 141.310 19.679 0.000
2738 1 142.730 19.679 0.000
2739 1 143.440 20.909 0.000
2740 1 144.860 20.909 0.000
2741 1 145.571 19.679 0.000
2742 1 146.991 19.679 0.000
2743 1 147.701 20.909 0.000
2744 1 149.121 20.909 0.000
2745 1 149.831 19.679 0.000
2746 1 151.251 19.679 0.000
2747 1 151.961 20.909 0.000
2748 1 153.382 20.909 0.000
2749 1 154.092 19.679 0.000
2750 1 155.512 19.679 0.000
2751 1 156.222 20.909 0.000
2752 1 157.642 20.909 0.000
2753 1 158.352 19.679 0.000
2754 1 159.773 19.679 0.000
2755 1 160.483 20.909 0.000
2756 1 161.903 20.909 0.000
2757 1 162.613 19.679 0.000
2758 1 164.033 19.679 0.000
2759 1 164.743 20.909 0.000
2760 1 166.163 20.909 0.000
2761 3 166.163 20.909 1.100
2762 1 166.874 19.679 0.000
2763 2 166.874 19.679 -1.500
2764 3 167.974 19.679 -1.633
2765 3 166.323 20.631 -1.633
2766 3 166.323 18.726 -1.633
2767 1 168.294 19.679 0.000
2768 1 169.004 20.909 0.000
2769 1 170.424 20.909 0.000
2770 1 171.134 19.679 0.000
2771 1 172.554 19.679 0.000
2772 1 173.264 20.909 0.000
2773 3 173.264 20.909 -1.100
2774 1 174.685 20.909 0.000
2775 1 175.395 19.679 0.000
2776 1 176.815 19.679 0.000
2777 1 177.525 20.909 0.000
2778 1 178.945 20.909 0.000
2779 1 179.655 19.679 0.000
2780 1 181.076 19.679 0.000
2781 1 181.786 20.909 0.000
2782 1 183.206 20.909 0.000
2783 1 183.916 19.679 0.000
2784 3 183.916 19.679 -1.100
2785 1 185.336 19.679 0.000
2786 3 185.336 19.679 1.100
2787 1 186.046 20.909 0.000
2788 1 187.466 20.909 0.000
2789 1 188.177 19.679 0.000
2790 1 189.597 19.679 0.000
2791 3 189.597 19.679 1.100
2792 1 190.307 20.909 0.000
2793 1 191.727 20.909 0.000
2794 3 191.727 20.909 -1.100
2795 1 192.437 19.679 0.000
2796 1 193.857 19.679 0.000
2797 1 194.567 20.909 0.000
2798 1 195.988 20.909 0.000
2799 1 196.698 19.679 0.000
2800 1 198.118 19.679 0.000
2801 1 198.828 20.909 0.000
2802 1 200.248 20.909 0.000
2803 1 200.958 19.679 0.000
2804 1 202.379 19.679 0.000
2805 1 203.089 20.909 0.000
2806 2 203.089 20.909 1.500
2807 3 204.189 20.909 1.633
2808 3 202.539 21.861 1.633
2809 3 202.539 19.956 1.633
2810 1 204.509 20.909 0.000
2811 1 205.219 19.679 0.000
2812 1 206.639 19.679 0.000
2813 1 207.349 20.909 0.000
2814 2 207.349 20.909 -1.500
2815 3 208.449 20.909 -1.633
2816 3 206.799 21.861 -1.633
2817 3 206.799 19.956 -1.633
2818 1 208.769 20.909 0.000
2819 1 209.480 19.679 0.000
2820 1 210.900 19.679 0.000
2821 1 211.610 20.909 0.000
2822 1 213.030 20.909 0.000
2823 1 213.740 19.679 0.000
2824 1 215.160 19.679 0.000
2825 1 215.870 20.909 0.000
2826 1 217.291 20.909 0.000
2827 1 218.001 19.679 0.000
2828 1 219.421 19.679 0.000
2829 1 220.131 20.909 0.000
2830 3 220.131 20.909 -1.100
2831 1 221.551 20.909 0.000
2832 1 222.261 19.679 0.000
2833 1 223.681 19.679 0.000
2834 1 224.392 20.909 0.000
2835 1 225.812 20.909 0.000
2836 1 226.522 19.679 0.000
2837 1 227.942 19.679 0.000
2838 1 228.652 20.909 0.000
2839 1 230.072 20.909 0.000
2840 1 230.783 19.679 0.000
2841 2 230.783 19.679 1.500
2842 3 231.883 19.679 1.633
2843 3 230.233 20.631 1.633
2844 3 230.233 18.726 1.633
2845 1 232.203 19.679 0.000
2846 1 232.913 20.909 0.000
2847 1 234.333 20.909 0.000
2848 1 235.043 19.679 0.000
2849 1 236.463 19.679 0.000
2850 1 237.173 20.909 0.000
2851 3 237.173 20.909 -1.100
2852 1 238.594 20.909 0.000
2853 3 238.594 20.909 1.100
2854 1 239.304 19.679 0.000
2855 1 240.724 19.679 0.000
2856 1 241.434 20.909 0.000
2857 1 242.854 20.909 0.000
2858 1 243.564 19.679 0.000
2859 1 244.985 19.679 0.000
2860 1 245.695 20.909 0.000
2861 1 247.115 20.909 0.000
2862 1 247.825 19.679 0.000
2863 1 249.245 19.679 0.000
2864 1 249.955 20.909 0.000
2865 3 249.955 20.909 1.100
2866 1 0.000 23.369 0.000
2867 1 0.710 22.139 0.000
2868 1 2.130 22.139 0.000
2869 1 2.840 23.369 0.000
2870 3 2.840 23.369 1.100
2871 1 4.261 23.369 0.000
2872 1 4.971 22.139 0.000
2873 1 6.391 22.139 0.000
2874 1 7.101 23.369 0.000
2875 1 8.521 23.369 0.000
2876 1 9.231 22.139 0.000
2877 1 10.652 22.139 0.000
2878 1 11.362 23.369 0.000
2879 1 12.782 23.369 0.000
2880 1 13.492 22.139 0.000
2881 3 13.492 22.139 -1.100
2882 1 14.912 22.139 0.000
2883 1 15.622 23.369 0.000
2884 3 15.622 23.369 1.100
2885 1 17.042 23.369 0.000
2886 3 17.042 23.369 1.100
2887 1 17.753 22.139 0.000
2888 1 19.173 22.139 0.000
2889 1 19.883 23.369 0.000
2890 3 19.883 23.369 -1.100
2891 1 21.303 23.369 0.000
2892 3 21.303 23.369 -1.100
2893 1 22.013 22.139 0.000
2894 1 23.433 22.139 0.000
2895 1 24.143 23.369 0.000
2896 1 25.564 23.369 0.000
2897 1 26.274 22.139 0.000
2898 1 27.694 22.139 0.000
2899 1 28.404 23.369 0.000
2900 1 29.824 23.369 0.000
2901 1 30.534 22.139 0.000
2902 1 31.954 22.139 0.000
2903 1 32.665 23.369 0.000
2904 1 34.085 23.369 0.000
2905 3 34.085 23.369 1.100
2906 1 34.795 22.139 0.000
2907 1 36.215 22.139 0.000
2908 1 36.925 23.369 0.000
2909 1 38.345 23.369 0.000
2910 1 39.055 22.139 0.000
2911 1 40.476 22.139 0.000
2912 3 40.476 22.139 1.100
2913 1 41.186 23.369 0.000
2914 1 42.606 23.369 0.000
2915 1 43.316 22.139 0.000
2916 1 44.736 22.139 0.000
2917 1 45.446 23.369 0.000
2918 1 46.867 23.369 0.000
2919 1 47.577 22.139 0.000
2920 1 48.997 22.139 0.000
2921 1 49.707 23.369 0.000
2922 1 51.127 23.369 0.000
2923 1 51.837 22.139 0.000
2924 1 53.258 22.139 0.000
2925 1 53.968 23.369 0.000
2926 1 55.388 23.369 0.000
2927 1 56.098 22.139 0.000
2928 1 57.518 22.139 0.000
2929 2 57.518 22.139 1.500
2930 3 58.618 22.139 1.633
2931 3 56.968 23.091 1.633
2932 3 56.968 21.186 1.633
2933 1 58.228 23.369 0.000
2934 1 59.648 23.369 0.000
2935 1 60.358 22.139 0.000
2936 1 61.779 22.139 0.000
2937 3 61.779 22.139 1.100
2938 1 62.489 23.369 0.000
2939 1 63.909 23.369 0.000
2940 1 64.619 22.139 0.000
2941 1 66.039 22.139 0.000
2942 2 66.039 22.139 1.500
2943 3 67.139 22.139 1.633
2944 3 65.489 23.091 1.633
2945 3 65.489 21.186 1.633
2946 1 66.749 23.369 0.000
2947 1 68.170 23.369 0.000
2948 1 68.880 22.139 0.000
2949 1 70.300 22.139 0.000
2950 1 71.010 23.369 0.000
2951 1 72.430 23.369 0.000
2952 3 72.430 23.369 1.100
2953 1 73.140 22.139 0.000
2954 3 73.140 22.139 -1.100
2955 1 74.561 22.139 0.000
2956 1 75.271 23.369 0.000
2957 1 76.691 23.369 0.000
2958 1 77.401 22.139 0.000
2959 1 78.821 22.139 0.000
2960 1 79.531 23.369 0.000
2961 1 80.951 23.369 0.000
2962 1 81.662 22.139 0.000
2963 1 83.082 22.139 0.000
2964 1 83.792 23.369 0.000
2965 1 85.212 23.369 0.000
2966 1 85.922 22.139 0.000
2967 1 87.342 22.139 0.000
2968 1 88.052 23.369 0.000
2969 1 89.473 23.369 0.000
2970 1 90.183 22.139 0.000
2971 1 91.603 22.139 0.000
2972 1 92.313 23.369 0.000
2973 1 93.733 23.369 0.000
2974 1 94.443 22.139 0.000
2975 1 95.864 22.139 0.000
2976 1 96.574 23.369 0.000
2977 2 96.574 23.369 1.500
2978 3 97.674 23.369 1.633
2979 3 96.024 24.321 1.633
2980 3 96.024 22.416 1.633
2981 1 97.994 23.369 0.000
2982 1 98.704 22.139 0.000
2983 1 100.124 22.139 0.000
2984 2 100.124 22.139 1.500
2985 3 101.224 22.139 1.633
2986 3 99.574 23.091 1.633
2987 3 99.574 21.186 1.633
2988 1 100.834 23.369 0.000
2989 1 102.254 23.369 0.000
2990 1 102.965 22.139 0.000
2991 1 104.385 22.139 0.000
2992 1 105.095 23.369 0.000
2993 1 106.515 23.369 0.000
2994 1 107.225 22.139 0.000
2995 1 108.645 22.139 0.000
2996 1 109.355 23.369 0.000
2997 1 110.776 23.369 0.000
2998 1 111.486 22.139 0.000
2999 1 112.906 22.139 0.000
3000 1 113.616 23.369 0.000
3001 2 113.616 23.369 -1.500
3002 3 114.716 23.369 -1.633
3003 3 113.066 24.321 -1.633
3004 3 113.066 22.416 -1.633
3005 1 115.036 23.369 0.000
3006 1 115.746 22.139 0.000
3007 1 117.167 22.139 0.000
3008 1 117.877 23.369 0.000
3009 1 119.297 23.369 0.000
3010 1 120.007 22.139 0.000
3011 3 120.007 22.139 1.100
3012 1 121.427 22.139 0.000
3013 1 122.137 23.369 0.000
3014 1 123.557 23.369 0.000
3015 1 124.267 22.139 0.000
3016 1 125.688 22.139 0.000
3017 1 126.398 23.369 0.000
3018 1 127.818 23.369 0.000
3019 1 128.528 22.139 0.000
3020 1 129.948 22.139 0.000
3021 3 129.948 22.139 1.100
3022 1 130.658 23.369 0.000
3023 1 132.079 23.369 0.000
3024 1 132.789 22.139 0.000
3025 1 134.209 22.139 0.000
3026 1 134.919 23.369 0.000
3027 1 136.339 23.369 0.000
3028 1 137.049 22.139 0.000
3029 1 138.470 22.139 0.000
3030 1 139.180 23.369 0.000
3031 3 139.180 23.369 1.100
3032 1 140.600 23.369 0.000
3033 2 140.600 23.369 -1.500
3034 3 141.700 23.369 -1.633
3035 3 140.050 24.321 -1.633
3036 3 140.050 22.416 -1.633
3037 1 141.310 22.139 0.000
3038 1 142.730 22.139 0.000
3039 1 143.440 23.369 0.000
3040 1 144.860 23.369 0.000
3041 1 145.571 22.139 0.000
3042 2 145.571 22.139 -1.500
3043 3 146.671 22.139 -1.633
3044 3 145.020 23.091 -1.633
3045 3 145.020 21.186 -1.633
3046 1 146.991 22.139 0.000
3047 3 146.991 22.139 1.100
3048 1 147.701 23.369 0.000
3049 1 149.121 23.369 0.000
3050 1 149.831 22.139 0.000
3051 3 149.831 22.139 -1.100
3052 1 151.251 22.139 0.000
3053 1 151.961 23.369 0.000
3054 1 153.382 23.369 0.000
3055 1 154.092 22.139 0.000
3056 1 155.512 22.139 0.000
3057 2 155.512 22.139 1.500
3058 3 156.612 22.139 1.633
3059 3 154.962 23.091 1.633
3060 3 154.962 21.186 1.633
3061 1 156.222 23.369 0.000
3062 1 157.642 23.369 0.000
3063 3 157.642 23.369 1.100
3064 1 158.352 22.139 0.000
3065 1 159.773 22.139 0.000
3066 1 160.483 23.369 0.000
3067 3 160.483 23.369 1.100
3068 1 161.903 23.369 0.000
3069 1 162.613 22.139 0.000
3070 1 164.033 22.139 0.000
3071 1 164.743 23.369 0.000
3072 1 166.163 23.369 0.000
3073 1 166.874 22.139 0.000
3074 3 166.874 22.139 -1.100
3075 1 168.294 22.139 0.000
3076 1 169.004 23.369 0.000
3077 1 170.424 23.369 0.000
3078 3 170.424 23.369 -1.100
3079 1 171.134 22.139 0.000
3080 1 172.554 22.139 0.000
3081 1 173.264 23.369 0.000
3082 1 174.685 23.369 0.000
3083 2 174.685 23.369 1.500
3084 3 175.785 23.369 1.633
3085 3 174.135 24.321 1.633
3086 3 174.135 22.416 1.633
3087 1 175.395 22.139 0.000
3088 1 176.815 22.139 0.000
3089 1 177.525 23.369 0.000
3090 1 178.945 23.369 0.000
3091 2 178.945 23.369 1.500
3092 3 180.045 23.369 1.633
3093 3 178.395 24.321 1.633
3094 3 178.395 22.416 1.633
3095 1 179.655 22.139 0.000
3096 1 181.076 22.139 0.000
3097 1 181.786 23.369 0.000
3098 1 183.206 23.369 0.000
3099 1 183.916 22.139 0.000
3100 3 183.916 22.139 -1.100
3101 1 185.336 22.139 0.000
3102 1 186.046 23.369 0.000
3103 1 187.466 23.369 0.000
3104 1 188.177 22.139 0.000
3105 1 189.597 22.139 0.000
3106 1 190.307 23.369 0.000
3107 1 191.727 23.369 0.000
3108 1 192.437 22.139 0.000
3109 1 193.857 22.139 0.000
3110 1 194.567 23.369 0.000
3111 1 195.988 23.369 0.000
3112 1 196.698 22.139 0.000
3113 2 196.698 22.139 -1.500
3114 3 197.798 22.139 -1.633
3115 3 196.148 23.091 -1.633
3116 3 196.148 21.186 -1.633
3117 1 198.118 22.139 0.000
3118 1 198.828 23.369 0.000
3119 1 200.248 23.369 0.000
3120 1 200.958 22.139 0.000
3121 1 202.379 22.139 0.000
3122 1 203.089 23.369 0.000
3123 3 203.089 23.369 -1.100
3124 1 204.509 23.369 0.000
3125 1 205.219 22.139 0.000
3126 1 206.639 22.139 0.000
3127 1 207.349 23.369 0.000
3128 1 208.769 23.369 0.000
3129 1 209.480 22.139 0.000
3130 1 210.900 22.139 0.000
3131 1 211.610 23.369 0.000
3132 1 213.030 23.369 0.000
3133 2 213.030 23.369 1.500
3134 3 214.130 23.369 1.633
3135 3 212.480 24.321 1.633
3136 3 212.480 22.416 1.633
3137 1 213.740 22.139 0.000
3138 1 215.160 22.139 0.000
3139 3 215.160 22.139 1.100
3140 1 215.870 23.369 0.000
3141 1 217.291 23.369 0.000
3142 2 217.291 23.369 -1.500
3143 3 218.391 23.369 -1.633
3144 3 216.741 24.321 -1.633
3145 3 216.741 22.416 -1.633
3146 1 218.001 22.139 0.000
3147 1 219.421 22.139 0.000
3148 1 220.131 23.369 0.000
3149 1 221.551 23.369 0.000
3150 1 222.261 22.139 0.000
3151 2 222.261 22.139 -1.500
3152 3 223.361 22.139 -1.633
3153 3 221.711 23.091 -1.633
3154 3 221.711 21.186 -1.633
3155 1 223.681 22.139 0.000
3156 1 224.392 23.369 0.000
3157 1 225.812 23.369 0.000
3158 1 226.522 22.139 0.000
3159 1 227.942 22.139 0.000
3160 3 227.942 22.139 1.100
3161 1 228.652 23.369 0.000
3162 3 228.652 23.369 1.100
3163 1 230.072 23.369 0.000
3164 1 230.783 22.139 0.000
3165 1 232.203 22.139 0.000
3166 1 232.913 23.369 0.000
3167 1 234.333 23.369 0.000
3168 1 235.043 22.139 0.000
3169 1 236.463 22.139 0.000
3170 1 237.173 23.369 0.000
3171 1 238.594 23.369 0.000
3172 1 239.304 22.139 0.000
3173 1 240.724 22.139 0.000
3174 1 241.434 23.369 0.000
3175 1 242.854 23.369 0.000
3176 1 243.564 22.139 0.000
3177 1 244.985 22.139 0.000
3178 1 245.695 23.369 0.000
3179 1 247.115 23.369 0.000
3180 1 247.825 22.139 0.000
3181 1 249.245 22.139 0.000
3182 1 249.955 23.369 0.000
3183 2 249.955 23.369 1.500
3184 3 251.055 23.369 1.633
3185 3 249.405 24.321 1.633
3186 3 249.405 22.416 1.633
3187 1 0.000 25.829 0.000
3188 3 0.000 25.829 1.100
3189 1 0.710 24.599 0.000
3190 1 2.130 24.599 0.000
3191 1 2.840 25.829 0.000
3192 1 4.261 25.829 0.000
3193 3 4.261 25.829 1.100
3194 1 4.971 24.599 0.000
3195 1 6.391 24.599 0.000
3196 1 7.101 25.829 0.000
3197 1 8.521 25.829 0.000
3198 1 9.231 24.599 0.000
3199 1 10.652 24.599 0.000
3200 3 10.652 24.599 1.100
3201 1 11.362 25.829 0.000
3202 1 12.782 25.829 0.000
3203 1 13.492 24.599 0.000
3204 1 14.912 24.599 0.000
3205 1 15.622 25.829 0.000
3206 3 15.622 25.829 1.100
3207 1 17.042 25.829 0.000
3208 1 17.753 24.599 0.000
3209 1 19.173 24.599 0.000
3210 1 19.883 25.829 0.000
3211 1 21.303 25.829 0.000
3212 1 22.013 24.599 0.000
3213 1 23.433 24.599 0.000
3214 1 24.143 25.829 0.000
3215 1 25.564 25.829 0.000
3216 1 26.274 24.599 0.000
3217 1 27.694 24.599 0.000
3218 1 28.404 25.829 0.000
3219 1 29.824 25.829 0.000
3220 1 30.534 24.599 0.000
3221 3 30.534 24.599 -1.100
3222 1 31.954 24.599 0.000
3223 1 32.665 25.829 0.000
3224 1 34.085 25.829 0.000
3225 3 34.085 25.829 -1.100
3226 1 34.795 24.599 0.000
3227 1 36.215 24.599 0.000
3228 1 36.925 25.829 0.000
3229 1 38.345 25.829 0.000
3230 1 39.055 24.599 0.000
3231 1 40.476 24.599 0.000
3232 1 41.186 25.829 0.000
3233 2 41.186 25.829 -1.500
3234 3 42.286 25.829 -1.633
3235 3 40.636 26.781 -1.633
3236 3 40.636 24.876 -1.633
3237 1 42.606 25.829 0.000
3238 1 43.316 24.599 0.000
3239 1 44.736 24.599 0.000
3240 1 45.446 25.829 0.000
3241 1 46.867 25.829 0.000
3242 1 47.577 24.599 0.000
3243 1 48.997 24.599 0.000
3244 1 49.707 25.829 0.000
3245 1 51.127 25.829 0.000
3246 3 51.127 25.829 -1.100
3247 1 51.837 24.599 0.000
3248 1 53.258 24.599 0.000
3249 1 53.968 25.829 0.000
3250 1 55.388 25.829 0.000
3251 1 56.098 24.599 0.000
3252 1 57.518 24.599 0.000
3253 2 57.518 24.599 -1.500
3254 3 58.618 24.599 -1.633
3255 3 56.968 25.551 -1.633
3256 3 56.968 23.646 -1.633
3257 1 58.228 25.829 0.000
3258 1 59.648 25.829 0.000
3259 1 60.358 24.599 0.000
3260 1 61.779 24.599 0.000
3261 3 61.779 24.599 1.100
3262 1 62.489 25.829 0.000
3263 1 63.909 25.829 0.000
3264 1 64.619 24.599 0.000
3265 1 66.039 24.599 0.000
3266 1 66.749 25.829 0.000
3267 1 68.170 25.829 0.000
3268 1 68.880 24.599 0.000
3269 1 70.300 24.599 0.000
3270 3 70.300 24.599 1.100
3271 1 71.010 25.829 0.000
3272 1 72.430 25.829 0.000
3273 1 73.140 24.599 0.000
3274 1 74.561 24.599 0.000
3275 1 75.271 25.829 0.000
3276 1 76.691 25.829 0.000
3277 1 77.401 24.599 0.000
3278 1 78.821 24.599 0.000
3279 3 78.821 24.599 1.100
3280 1 79.531 25.829 0.000
3281 1 80.951 25.829 0.000
3282 1 81.662 24.599 0.000
3283 1 83.082 24.599 0.000
3284 2 83.082 24.599 -1.500
3285 3 84.182 24.599 -1.633
3286 3 82.532 25.551 -1.633
3287 3 82.532 23.646 -1.633
3288 1 83.792 25.829 0.000
3289 1 85.212 25.829 0.000
3290 1 85.922 24.599 0.000
3291 2 85.922 24.599 1.500
3292 3 87.022 24.599 1.633
3293 3 85.372 25.551 1.633
3294 3 85.372 23.646 1.633
3295 1 87.342 24.599 0.000
3296 1 88.052 25.829 0.000
3297 1 89.473 25.829 0.000
3298 1 90.183 24.599 0.000
3299 3 90.183 24.599 1.100
3300 1 91.603 24.599 0.000
3301 1 92.313 25.829 0.000
3302 1 93.733 25.829 0.000
3303 2 93.733 25.829 -1.500
3304 3 94.833 25.829 -1.633
3305 3 93.183 26.781 -1.633
3306 3 93.183 24.876 -1.633
3307 1 94.443 24.599 0.000
3308 1 95.864 24.599 0.000
3309 1 96.574 25.829 0.000
3310 1 97.994 25.829 0.000
3311 1 98.704 24.599 0.000
3312 1 100.124 24.599 0.000
3313 1 100.834 25.829 0.000
3314 1 102.254 25.829 0.000
3315 1 102.965 24.599 0.000
3316 1 104.385 24.599 0.000
3317 1 105.095 25.829 0.000
3318 1 106.515 25.829 0.000
3319 1 107.225 24.599 0.000
3320 1 108.645 24.599 0.000
3321 3 108.645 24.599 -1.100
3322 1 109.355 25.829 0.000
3323 1 110.776 25.829 0.000
3324 1 111.486 24.599 0.000
3325 1 112.906 24.599 0.000
3326 1 113.616 25.829 0.000
3327 1 115.036 25.829 0.000
3328 3 115.036 25.829 1.100
3329 1 115.746 24.599 0.000
3330 1 117.167 24.599 0.000
3331 1 117.877 25.829 0.000
3332 1 119.297 25.829 0.000
3333 1 120.007 24.599 0.000
3334 1 121.427 24.599 0.000
3335 1 122.137 25.829 0.000
3336 1 123.557 25.829 0.000
3337 1 124.267 24.599 0.000
3338 3 124.267 24.599 1.100
3339 1 125.688 24.599 0.000
3340 1 126.398 25.829 0.000
3341 1 127.818 25.829 0.000
3342 1 128.528 24.599 0.000
3343 3 128.528 24.599 -1.100
3344 1 129.948 24.599 0.000
3345 1 130.658 25.829 0.000
3346 2 130.658 25.829 1.500
3347 3 131.758 25.829 1.633
3348 3 130.108 26.781 1.633
3349 3 130.108 24.876 1.633
3350 1 132.079 25.829 0.000
3351 1 132.789 24.599 0.000
3352 1 134.209 24.599 0.000
3353 1 134.919 25.829 0.000
3354 1 136.339 25.829 0.000
3355 1 137.049 24.599 0.000
3356 1 138.470 24.599 0.000
3357 1 139.180 25.829 0.000
3358 1 140.600 25.829 0.000
3359 1 141.310 24.599 0.000
3360 1 142.730 24.599 0.000
3361 1 143.440 25.829 0.000
3362 1 144.860 25.829 0.000
3363 1 145.571 24.599 0.000
3364 1 146.991 24.599 0.000
3365 1 147.701 25.829 0.000
3366 1 149.121 25.829 0.000
3367 1 149.831 24.599 0.000
3368 1 151.251 24.599 0.000
3369 1 151.961 25.829 0.000
3370 1 153.382 25.829 0.000
3371 2 153.382 25.829 -1.500
3372 3 154.482 25.829 -1.633
3373 3 152.832 26.781 -1.633
3374 3 152.832 24.876 -1.633
3375 1 154.092 24.599 0.000
3376 1 155.512 24.599 0.000
3377 1 156.222 25.829 0.000
3378 1 157.642 25.829 0.000
3379 1 158.352 24.599 0.000
3380 1 159.773 24.599 0.000
3381 1 160.483 25.829 0.000
3382 1 161.903 25.829 0.000
3383 1 162.613 24.599 0.000
3384 1 164.033 24.599 0.000
3385 1 164.743 25.829 0.000
3386 1 166.163 25.829 0.000
3387 1 166.874 24.599 0.000
3388 3 166.874 24.599 1.100
3389 1 168.294 24.599 0.000
3390 1 169.004 25.829 0.000
3391 1 170.424 25.829 0.000
3392 1 171.134 24.599 0.000
3393 2 171.134 24.599 1.500
3394 3 172.234 24.599 1.633
3395 3 170.584 25.551 1.633
3396 3 170.584 23.646 1.633
3397 1 172.554 24.599 0.000
3398 3 172.554 24.599 -1.100
3399 1 173.264 25.829 0.000
3400 1 174.685 25.829 0.000
3401 1 175.395 24.599 0.000
3402 1 176.815 24.599 0.000
3403 1 177.525 25.829 0.000
3404 1 178.945 25.829 0.000
3405 2 178.945 25.829 -1.500
3406 3 180.045 25.829 -1.633
3407 3 178.395 26.781 -1.633
3408 3 178.395 24.876 -1.633
3409 1 179.655 24.599 0.000
3410 1 181.076 24.599 0.000
3411 1 181.786 25.829 0.000
3412 1 183.206 25.829 0.000
3413 1 183.916 24.599 0.000
3414 1 185.336 24.599 0.000
3415 2 185.336 24.599 -1.500
3416 3 186.436 24.599 -1.633
3417 3 184.786 25.551 -1.633
3418 3 184.786 23.646 -1.633
3419 1 186.046 25.829 0.000
3420 1 187.466 25.829 0.000
3421 1 188.177 24.599 0.000
3422 1 189.597 24.599 0.000
3423 1 190.307 25.829 0.000
3424 2 190.307 25.829 1.500
3425 3 191.407 25.829 1.633
3426 3 189.757 26.781 1.633
3427 3 189.757 24.876 1.633
3428 1 191.727 25.829 0.000
3429 1 192.437 24.599 0.000
3430 1 193.857 24.599 0.000
3431 3 193.857 24.599 -1.100
3432 1 194.567 25.829 0.000
3433 1 195.988 25.829 0.000
3434 1 196.698 24.599 0.000
3435 1 198.118 24.599 0.000
3436 1 198.828 25.829 0.000
3437 2 198.828 25.829 -1.500
3438 3 199.928 25.829 -1.633
3439 3 198.278 26.781 -1.633
3440 3 198.278 24.876 -1.633
3441 1 200.248 25.829 0.000
3442 1 200.958 24.599 0.000
3443 1 202.379 24.599 0.000
3444 1 203.089 25.829 0.000
3445 1 204.509 25.829 0.000
3446 2 204.509 25.829 1.500
3447 3 205.609 25.829 1.633
3448 3 203.959 26.781 1.633
3449 3 203.959 24.876 1.633
3450 1 205.219 24.599 0.000
3451 1 206.639 24.599 0.000
3452 1 207.349 25.829 0.000
3453 1 208.769 25.829 0.000
3454 1 209.480 24.599 0.000
3455 1 210.900 24.599 0.000
3456 1 211.610 25.829 0.000
3457 1 213.030 25.829 0.000
3458 1 213.740 24.599 0.000
3459 1 215.160 24.599 0.000
3460 3 215.160 24.599 -1.100
3461 1 215.870 25.829 0.000
3462 1 217.291 25.829 0.000
3463 1 218.001 24.599 0.000
3464 1 219.421 24.599 0.000
3465 1 220.131 25.829 0.000
3466 1 221.551 25.829 0.000
3467 3 221.551 25.829 -1.100
3468 1 222.261 24.599 0.000
3469 1 223.681 24.599 0.000
3470 1 224.392 25.829 0.000
3471 1 225.812 25.829 0.000
3472 1 226.522 24.599 0.000
3473 1 227.942 24.599 0.000
3474 1 228.652 25.829 0.000
3475 1 230.072 25.829 0.000
3476 1 230.783 24.599 0.000
3477 1 232.203 24.599 0.000
3478 1 232.913 25.829 0.000
3479 1 234.333 25.829 0.000
3480 1 235.043 24.599 0.000
3481 1 236.463 24.599 0.000
3482 1 237.173 25.829 0.000
3483 1 238.594 25.829 0.000
3484 1 239.304 24.599 0.000
3485 1 240.724 24.599 0.000
3486 1 241.434 25.829 0.000
3487 1 242.854 25.829 0.000
3488 1 243.564 24.599 0.000
3489 1 244.985 24.599 0.000
3490 1 245.695 25.829 0.000
3491 1 247.115 25.829 0.000
3492 1 247.825 24.599 0.000
3493 1 249.245 24.599 0.000
3494 1 249.955 25.829 0.000
3495 1 0.000 28.288 0.000
3496 1 0.710 27.058 0.000
3497 1 2.130 27.058 0.000
3498 1 2.840 28.288 0.000
3499 1 4.261 28.288 0.000
3500 1 4.971 27.058 0.000
3501 3 4.971 27.058 1.100
3502 1 6.391 27.058 0.000
3503 1 7.101 28.288 0.000
3504 1 8.521 28.288 0.000
3505 1 9.231 27.058 0.000
3506 1 10.652 27.058 0.000
3507 1 11.362 28.288 0.000
3508 1 12.782 28.288 0.000
3509 1 13.492 27.058 0.000
3510 3 13.492 27.058 -1.100
3511 1 14.912 27.058 0.000
3512 1 15.622 28.288 0.000
3513 1 17.042 28.288 0.000
3514 1 17.753 27.058 0.000
3515 1 19.173 27.058 0.000
3516 1 19.883 28.288 0.000
3517 1 21.303 28.288 0.000
3518 1 22.013 27.058 0.000
3519 1 23.433 27.058 0.000
3520 1 24.143 28.288 0.000
3521 1 25.564 28.288 0.000
3522 1 26.274 27.058 0.000
3523 1 27.694 27.058 0.000
3524 1 28.404 28.288 0.000
3525 2 28.404 28.288 -1.500
3526 3 29.504 28.288 -1.633
3527 3 27.854 29.241 -1.633
3528 3 27.854 27.336 -1.633
3529 1 29.824 28.288 0.000
3530 1 30.534 27.058 0.000
3531 1 31.954 27.058 0.000
3532 3 31.954 27.058 1.100
3533 1 32.665 28.288 0.000
3534 1 34.085 28.288 0.000
3535 2 34.085 28.288 1.500
3536 3 35.185 28.288 1.633
3537 3 33.535 29.241 1.633
3538 3 33.535 27.336 1.633
3539 1 34.795 27.058 0.000
3540 1 36.215 27.058 0.000
3541 1 36.925 28.288 0.000
3542 1 38.345 28.288 0.000
3543 1 39.055 27.058 0.000
3544 1 40.476 27.058 0.000
3545 1 41.186 28.288 0.000
3546 3 41.186 28.288 -1.100
3547 1 42.606 28.288 0.000
3548 1 43.316 27.058 0.000
3549 1 44.736 27.058 0.000
3550 1 45.446 28.288 0.000
3551 1 46.867 28.288 0.000
3552 3 46.867 28.288 -1.100
3553 1 47.577 27.058 0.000
3554 1 48.997 27.058 0.000
3555 1 49.707 28.288 0.000
3556 1 51.127 28.288 0.000
3557 1 51.837 27.058 0.000
3558 1 53.258 27.058 0.000
3559 3 53.258 27.058 1.100
3560 1 53.968 28.288 0.000
3561 1 55.388 28.288 0.000
3562 1 56.098 27.058 0.000
3563 1 57.518 27.058 0.000
3564 1 58.228 28.288 0.000
3565 1 59.648 28.288 0.000
3566 3 59.648 28.288 -1.100
3567 1 60.358 27.058 0.000
3568 1 61.779 27.058 0.000
3569 1 62.489 28.288 0.000
3570 1 63.909 28.288 0.000
3571 1 64.619 27.058 0.000
3572 1 66.039 27.058 0.000
3573 2 66.039 27.058 -1.500
3574 3 67.139 27.058 -1.633
3575 3 65.489 28.011 -1.633
3576 3 65.489 26.106 -1.633
3577 1 66.749 28.288 0.000
3578 1 68.170 28.288 0.000
3579 1 68.880 27.058 0.000
3580 1 70.300 27.058 0.000
3581 1 71.010 28.288 0.000
3582 1 72.430 28.288 0.000
3583 1 73.140 27.058 0.000
3584 1 74.561 27.058 0.000
3585 1 75.271 28.288 0.000
3586 1 76.691 28.288 0.000
3587 1 77.401 27.058 0.000
3588 3 77.401 27.058 -1.100
3589 1 78.821 27.058 0.000
3590 1 79.531 28.288 0.000
3591 1 80.951 28.288 0.000
3592 3 80.951 28.288 1.100
3593 1 81.662 27.058 0.000
3594 1 83.082 27.058 0.000
3595 1 83.792 28.288 0.000
3596 1 85.212 28.288 0.000
3597 1 85.922 27.058 0.000
3598 1 87.342 27.058 0.000
3599 3 87.342 27.058 -1.100
3600 1 88.052 28.288 0.000
3601 1 89.473 28.288 0.000
3602 1 90.183 27.058 0.000
3603 1 91.603 27.058 0.000
3604 1 92.313 28.288 0.000
3605 1 93.733 28.288 0.000
3606 1 94.443 27.058 0.000
3607 1 95.864 27.058 0.000
3608 1 96.574 28.288 0.000
3609 1 97.994 28.288 0.000
3610 1 98.704 27.058 0.000
3611 1 100.124 27.058 0.000
3612 2 100.124 27.058 1.500
3613 3 101.224 27.058 1.633
3614 3 99.574 28.011 1.633
3615 3 99.574 26.106 1.633
3616 1 100.834 28.288 0.000
3617 1 102.254 28.288 0.000
3618 1 102.965 27.058 0.000
3619 1 104.385 27.058 0.000
3620 1 105.095 28.288 0.000
3621 1 106.515 28.288 0.000
3622 1 107.225 27.058 0.000
3623 1 108.645 27.058 0.000
3624 1 109.355 28.288 0.000
3625 1 110.776 28.288 0.000
3626 1 111.486 27.058 0.000
3627 1 112.906 27.058 0.000
3628 1 113.616 28.288 0.000
3629 1 115.036 28.288 0.000
3630 1 115.746 27.058 0.000
3631 1 117.167 27.058 0.000
3632 2 117.167 27.058 -1.500
3633 3 118.267 27.058 -1.633
3634 3 116.617 28.011 -1.633
3635 3 116.617 26.106 -1.633
3636 1 117.877 28.288 0.000
3637 1 119.297 28.288 0.000
3638 2 119.297 28.288 1.500
3639 3 120.397 28.288 1.633
3640 3 118.747 29.241 1.633
3641 3 118.747 27.336 1.633
3642 1 120.007 27.058 0.000
3643 1 121.427 27.058 0.000
3644 1 122.137 28.288 0.000
3645 1 123.557 28.288 0.000
3646 1 124.267 27.058 0.000
3647 1 125.688 27.058 0.000
3648 1 126.398 28.288 0.000
3649 1 127.818 28.288 0.000
3650 1 128.528 27.058 0.000
3651 1 129.948 27.058 0.000
3652 1 130.658 28.288 0.000
3653 3 130.658 28.288 1.100
3654 1 132.079 28.288 0.000
3655 1 132.789 27.058 0.000
3656 1 134.209 27.058 0.000
3657 1 134.919 28.288 0.000
3658 2 134.919 28.288 -1.500
3659 3 136.019 28.288 -1.633
3660 3 134.369 29.241 -1.633
3661 3 134.369 27.336 -1.633
3662 1 136.339 28.288 0.000
3663 1 137.049 27.058 0.000
3664 1 138.470 27.058 0.000
3665 1 139.180 28.288 0.000
3666 1 140.600 28.288 0.000
3667 1 141.310 27.058 0.000
3668 1 142.730 27.058 0.000
3669 1 143.440 28.288 0.000
3670 1 144.860 28.288 0.000
3671 1 145.571 27.058 0.000
3672 1 146.991 27.058 0.000
3673 1 147.701 28.288 0.000
3674 1 149.121 28.288 0.000
3675 3 149.121 28.288 1.100
3676 1 149.831 27.058 0.000
3677 1 151.251 27.058 0.000
3678 1 151.961 28.288 0.000
3679 1 153.382 28.288 0.000
3680 3 153.382 28.288 -1.100
3681 1 154.092 27.058 0.000
3682 1 155.512 27.058 0.000
3683 1 156.222 28.288 0.000
3684 1 157.642 28.288 0.000
3685 1 158.352 27.058 0.000
3686 1 159.773 27.058 0.000
3687 1 160.483 28.288 0.000
3688 3 160.483 28.288 1.100
3689 1 161.903 28.288 0.000
3690 1 162.613 27.058 0.000
3691 1 164.033 27.058 0.000
3692 1 164.743 28.288 0.000
3693 3 164.743 28.288 1.100
3694 1 166.163 28.288 0.000
3695 3 166.163 28.288 1.100
3696 1 166.874 27.058 0.000
3697 3 166.874 27.058 -1.100
3698 1 168.294 27.058 0.000
3699 1 169.004 28.288 0.000
3700 1 170.424 28.288 0.000
3701 1 171.134 27.058 0.000
3702 2 171.134 27.058 -1.500
3703 3 172.234 27.058 -1.633
3704 3 170.584 28.011 -1.633
3705 3 170.584 26.106 -1.633
3706 1 172.554 27.058 0.000
3707 1 173.264 28.288 0.000
3708 1 174.685 28.288 0.000
3709 1 175.395 27.058 0.000
3710 1 176.815 27.058 0.000
3711 1 177.525 28.288 0.000
3712 1 178.945 28.288 0.000
3713 1 179.655 27.058 0.000
3714 1 181.076 27.058 0.000
3715 1 181.786 28.288 0.000
3716 1 183.206 28.288 0.000
3717 1 183.916 27.058 0.000
3718 1 185.336 27.058 0.000
3719 1 186.046 28.288 0.000
3720 1 187.466 28.288 0.000
3721 1 188.177 27.058 0.000
3722 1 189.597 27.058 0.000
3723 1 190.307 28.288 0.000
3724 1 191.727 28.288 0.000
3725 1 192.437 27.058 0.000
3726 1 193.857 27.058 0.000
3727 1 194.567 28.288 0.000
3728 1 195.988 28.288 0.000
3729 1 196.698 27.058 0.000
3730 1 198.118 27.058 0.000
3731 1 198.828 28.288 0.000
3732 1 200.248 28.288 0.000
3733 3 200.248 28.288 1.100
3734 1 200.958 27.058 0.000
3735 1 202.379 27.058 0.000
3736 1 203.089 28.288 0.000
3737 1 204.509 28.288 0.000
3738 1 205.219 27.058 0.000
3739 1 206.639 27.058 0.000
3740 1 207.349 28.288 0.000
3741 1 208.769 28.288 0.000
3742 3 208.769 28.288 -1.100
3743 1 209.480 27.058 0.000
3744 1 210.900 27.058 0.000
3745 1 211.610 28.288 0.000
3746 1 213.030 28.288 0.000
3747 1 213.740 27.058 0.000
3748 3 213.740 27.058 1.100
3749 1 215.160 27.058 0.000
3750 2 215.160 27.058 -1.500
3751 3 216.260 27.058 -1.633
3752 3 214.610 28.011 -1.633
3753 3 214.610 26.106 -1.633
3754 1 215.870 28.288 0.000
3755 1 217.291 28.288 0.000
3756 1 218.001 27.058 0.000
3757 1 219.421 27.058 0.000
3758 1 220.131 28.288 0.000
3759 1 221.551 28.288 0.000
3760 1 222.261 27.058 0.000
3761 1 223.681 27.058 0.000
3762 1 224.392 28.288 0.000
3763 1 225.812 28.288 0.000
3764 1 226.522 27.058 0.000
3765 1 227.942 27.058 0.000
3766 1 228.652 28.288 0.000
3767 1 230.072 28.288 0.000
3768 3 230.072 28.288 -1.100
3769 1 230.783 27.058 0.000
3770 1 232.203 27.058 0.000
3771 2 232.203 27.058 -1.500
3772 3 233.303 27.058 -1.633
3773 3 231.653 28.011 -1.633
3774 3 231.653 26.106 -1.633
3775 1 232.913 28.288 0.000
3776 1 234.333 28.288 0.000
3777 1 235.043 27.058 0.000
3778 1 236.463 27.058 0.000
3779 1 237.173 28.288 0.000
3780 1 238.594 28.288 0.000
3781 1 239.304 27.058 0.000
3782 1 240.724 27.058 0.000
3783 1 241.434 28.288 0.000
3784 1 242.854 28.288 0.000
3785 1 243.564 27.058 0.000
3786 1 244.985 27.058 0.000
3787 1 245.695 28.288 0.000
3788 1 247.115 28.288 0.000
3789 3 247.115 28.288 1.100
3790 1 247.825 27.058 0.000
3791 1 249.245 27.058 0.000
3792 1 249.955 28.288 0.000
3793 1 0.000 30.748 0.000
3794 1 0.710 29.518 0.000
3795 1 2.130 29.518 0.000
3796 1 2.840 30.748 0.000
3797 1 4.261 30.748 0.000
3798 1 4.971 29.518 0.000
3799 1 6.391 29.518 0.000
3800 1 7.101 30.748 0.000
3801 1 8.521 30.748 0.000
3802 1 9.231 29.518 0.000
3803 1 10.652 29.518 0.000
3804 1 11.362 30.748 0.000
3805 1 12.782 30.748 0.000
3806 1 13.492 29.518 0.000
3807 3 13.492 29.518 -1.100
3808 1 14.912 29.518 0.000
3809 1 15.622 30.748 0.000
3810 1 17.042 30.748 0.000
3811 1 17.753 29.518 0.000
3812 1 19.173 29.518 0.000
3813 1 19.883 30.748 0.000
3814 2 19.883 30.748 1.500
3815 3 20.983 30.748 1.633
3816 3 19.333 31.701 1.633
3817 3 19.333 29.796 1.633
3818 1 21.303 30.748 0.000
3819 1 22.013 29.518 0.000
3820 1 23.433 29.518 0.000
3821 3 23.433 29.518 1.100
3822 1 24.143 30.748 0.000
3823 1 25.564 30.748 0.000
3824 1 26.274 29.518 0.000
3825 1 27.694 29.518 0.000
3826 1 28.404 30.748 0.000
3827 1 29.824 30.748 0.000
3828 2 29.824 30.748 1.500
3829 3 30.924 30.748 1.633
3830 3 29.274 31.701 1.633
3831 3 29.274 29.796 1.633
3832 1 30.534 29.518 0.000
3833 1 31.954 29.518 0.000
3834 1 32.665 30.748 0.000
3835 3 32.665 30.748 -1.100
3836 1 34.085 30.748 0.000
3837 1 34.795 29.518 0.000
3838 1 36.215 29.518 0.000
3839 1 36.925 30.748 0.000
3840 1 38.345 30.748 0.000
3841 1 39.055 29.518 0.000
3842 1 40.476 29.518 0.000
3843 1 41.186 30.748 0.000
3844 1 42.606 30.748 0.000
3845 1 43.316 29.518 0.000
3846 1 44.736 29.518 0.000
3847 1 45.446 30.748 0.000
3848 1 46.867 30.748 0.000
3849 3 46.867 30.748 -1.100
3850 1 47.577 29.518 0.000
3851 1 48.997 29.518 0.000
3852 1 49.707 30.748 0.000
3853 1 51.127 30.748 0.000
3854 2 51.127 30.748 1.500
3855 3 52.227 30.748 1.633
3856 3 50.577 31.701 1.633
3857 3 50.577 29.796 1.633
3858 1 51.837 29.518 0.000
3859 1 53.258 29.518 0.000
3860 1 53.968 30.748 0.000
3861 1 55.388 30.748 0.000
3862 1 56.098 29.518 0.000
3863 1 57.518 29.518 0.000
3864 1 58.228 30.748 0.000
3865 1 59.648 30.748 0.000
3866 1 60.358 29.518 0.000
3867 1 61.779 29.518 0.000
3868 1 62.489 30.748 0.000
3869 1 63.909 30.748 0.000
3870 1 64.619 29.518 0.000
3871 1 66.039 29.518 0.000
3872 1 66.749 30.748 0.000
3873 1 68.170 30.748 0.000
3874 1 68.880 29.518 0.000
3875 1 70.300 29.518 0.000
3876 1 71.010 30.748 0.000
3877 1 72.430 30.748 0.000
3878 1 73.140 29.518 0.000
3879 1 74.561 29.518 0.000
3880 1 75.271 30.748 0.000
3881 2 75.271 30.748 -1.500
3882 3 76.371 30.748 -1.633
3883 3 74.721 31.701 -1.633
3884 3 74.721 29.796 -1.633
3885 1 76.691 30.748 0.000
3886 1 77.401 29.518 0.000
3887 1 78.821 29.518 0.000
3888 1 79.531 30.748 0.000
3889 1 80.951 30.748 0.000
3890 1 81.662 29.518 0.000
3891 1 83.082 29.518 0.000
3892 3 83.082 29.518 -1.100
3893 1 83.792 30.748 0.000
3894 3 83.792 30.748 1.100
3895 1 85.212 30.748 0.000
3896 1 85.922 29.518 0.000
3897 1 87.342 29.518 0.000
3898 1 88.052 30.748 0.000
3899 1 89.473 30.748 0.000
3900 3 89.473 30.748 1.100
3901 1 90.183 29.518 0.000
3902 1 91.603 29.518 0.000
3903 1 92.313 30.748 0.000
3904 1 93.733 30.748 0.000
3905 3 93.733 30.748 1.100
3906 1 94.443 29.518 0.000
3907 1 95.864 29.518 0.000
3908 1 96.574 30.748 0.000
3909 1 97.994 30.748 0.000
3910 1 98.704 29.518 0.000
3911 1 100.124 29.518 0.000
3912 2 100.124 29.518 -1.500
3913 3 101.224 29.518 -1.633
3914 3 99.574 30.471 -1.633
3915 3 99.574 28.566 -1.633
3916 1 100.834 30.748 0.000
3917 1 102.254 30.748 0.000
3918 1 102.965 29.518 0.000
3919 1 104.385 29.518 0.000
3920 3 104.385 29.518 1.100
3921 1 105.095 30.748 0.000
3922 1 106.515 30.748 0.000
3923 1 107.225 29.518 0.000
3924 3 107.225 29.518 1.100
3925 1 108.645 29.518 0.000
3926 1 109.355 30.748 0.000
3927 1 110.776 30.748 0.000
3928 3 110.776 30.748 -1.100
3929 1 111.486 29.518 0.000
3930 1 112.906 29.518 0.000
3931 1 113.616 30.748 0.000
3932 3 113.616 30.748 1.100
3933 1 115.036 30.748 0.000
3934 1 115.746 29.518 0.000
3935 1 117.167 29.518 0.000
3936 1 117.877 30.748 0.000
3937 1 119.297 30.748 0.000
3938 1 120.007 29.518 0.000
3939 1 121.427 29.518 0.000
3940 1 122.137 30.748 0.000
3941 1 123.557 30.748 0.000
3942 1 124.267 29.518 0.000
3943 1 125.688 29.518 0.000
3944 3 125.688 29.518 -1.100
3945 1 126.398 30.748 0.000
3946 1 127.818 30.748 0.000
3947 1 128.528 29.518 0.000
3948 1 129.948 29.518 0.000
3949 1 130.658 30.748 0.000
3950 1 132.079 30.748 0.000
3951 1 132.789 29.518 0.000
3952 1 134.209 29.518 0.000
3953 1 134.919 30.748 0.000
3954 1 136.339 30.748 0.000
3955 1 137.049 29.518 0.000
3956 1 138.470 29.518 0.000
3957 1 139.180 30.748 0.000
3958 1 140.600 30.748 0.000
3959 3 140.600 30.748 -1.100
3960 1 141.310 29.518 0.000
3961 1 142.730 29.518 0.000
3962 3 142.730 29.518 -1.100
3963 1 143.440 30.748 0.000
3964 1 144.860 30.748 0.000
3965 1 145.571 29.518 0.000
3966 1 146.991 29.518 0.000
3967 1 147.701 30.748 0.000
3968 3 147.701 30.748 1.100
3969 1 149.121 30.748 0.000
3970 1 149.831 29.518 0.000
3971 1 151.251 29.518 0.000
3972 1 151.961 30.748 0.000
3973 1 153.382 30.748 0.000
3974 1 154.092 29.518 0.000
3975 1 155.512 29.518 0.000
3976 3 155.512 29.518 1.100
3977 1 156.222 30.748 0.000
3978 1 157.642 30.748 0.000
3979 1 158.352 29.518 0.000
3980 1 159.773 29.518 0.000
3981 1 160.483 30.748 0.000
3982 1 161.903 30.748 0.000
3983 1 162.613 29.518 0.000
3984 1 164.033 29.518 0.000
3985 1 164.743 30.748 0.000
3986 1 166.163 30.748 0.000
3987 1 166.874 29.518 0.000
3988 1 168.294 29.518 0.000
3989 1 169.004 30.748 0.000
3990 1 170.424 30.748 0.000
3991 1 171.134 29.518 0.000
3992 1 172.554 29.518 0.000
3993 1 173.264 30.748 0.000
3994 1 174.685 30.748 0.000
3995 1 175.395 29.518 0.000
3996 1 176.815 29.518 0.000
3997 1 177.525 30.748 0.000
3998 1 178.945 30.748 0.000
3999 1 179.655 29.518 0.000
4000 1 181.076 29.518 0.000
4001 1 181.786 30.748 0.000
4002 1 183.206 30.748 0.000
4003 1 183.916 29.518 0.000
4004 1 185.336 29.518 0.000
4005 1 186.046 30.748 0.000
4006 1 187.466 30.748 0.000
4007 1 188.177 29.518 0.000
4008 1 189.597 29.518 0.000
4009 1 190.307 30.748 0.000
4010 1 191.727 30.748 0.000
4011 3 191.727 30.748 1.100
4012 1 192.437 29.518 0.000
4013 1 193.857 29.518 0.000
4014 1 194.567 30.748 0.000
4015 2 194.567 30.748 1.500
4016 3 195.667 30.748 1.633
4017 3 194.017 31.701 1.633
4018 3 194.017 29.796 1.633
4019 1 195.988 30.748 0.000
4020 1 196.698 29.518 0.000
4021 1 198.118 29.518 0.000
4022 1 198.828 30.748 0.000
4023 1 200.248 30.748 0.000
4024 3 200.248 30.748 -1.100
4025 1 200.958 29.518 0.000
4026 1 202.379 29.518 0.000
4027 1 203.089 30.748 0.000
4028 1 204.509 30.748 0.000
4029 1 205.219 29.518 0.000
4030 1 206.639 29.518 0.000
4031 1 207.349 30.748 0.000
4032 1 208.769 30.748 0.000
4033 1 209.480 29.518 0.000
4034 1 210.900 29.518 0.000
4035 1 211.610 30.748 0.000
4036 2 211.610 30.748 -1.500
4037 3 212.710 30.748 -1.633
4038 3 211.060 31.701 -1.633
4039 3 211.060 29.796 -1.633
4040 1 213.030 30.748 0.000
4041 1 213.740 29.518 0.000
4042 1 215.160 29.518 0.000
4043 1 215.870 30.748 0.000
4044 1 217.291 30.748 0.000
4045 1 218.001 29.518 0.000
4046 1 219.421 29.518 0.000
4047 1 220.131 30.748 0.000
4048 1 221.551 30.748 0.000
4049 1 222.261 29.518 0.000
4050 1 223.681 29.518 0.000
4051 1 224.392 30.748 0.000
4052 1 225.812 30.748 0.000
4053 1 226.522 29.518 0.000
4054 2 226.522 29.518 -1.500
4055 3 227.622 29.518 -1.633
4056 3 225.972 30.471 -1.633
4057 3 225.972 28.566 -1.633
4058 1 227.942 29.518 0.000
4059 1 228.652 30.748 0.000
4060 1 230.072 30.748 0.000
4061 1 230.783 29.518 0.000
4062 1 232.203 29.518 0.000
4063 1 232.913 30.748 0.000
4064 1 234.333 30.748 0.000
4065 1 235.043 29.518 0.000
4066 1 236.463 29.518 0.000
4067 1 237.173 30.748 0.000
4068 1 238.594 30.748 0.000
4069 1 239.304 29.518 0.000
4070 1 240.724 29.518 0.000
4071 1 241.434 30.748 0.000
4072 3 241.434 30.748 -1.100
4073 1 242.854 30.748 0.000
4074 1 243.564 29.518 0.000
4075 1 244.985 29.518 0.000
4076 1 245.695 30.748 0.000
4077 1 247.115 30.748 0.000
4078 1 247.825 29.518 0.000
4079 1 249.245 29.518 0.000
4080 3 249.245 29.518 1.100
4081 1 249.955 30.748 0.000
4082 3 249.955 30.748 -1.100
4083 1 0.000 33.208 0.000
4084 1 0.710 31.978 0.000
4085 1 2.130 31.978 0.000
4086 1 2.840 33.208 0.000
4087 2 2.840 33.208 -1.500
4088 3 3.940 33.208 -1.633
4089 3 2.290 34.161 -1.633
4090 3 2.290 32.255 -1.633
4091 1 4.261 33.208 0.000
4092 1 4.971 31.978 0.000
4093 1 6.391 31.978 0.000
4094 1 7.101 33.208 0.000
4095 1 8.521 33.208 0.000
4096 2 8.521 33.208 -1.500
4097 3 9.621 33.208 -1.633
4098 3 7.971 34.161 -1.633
4099 3 7.971 32.255 -1.633
4100 1 9.231 31.978 0.000
4101 1 10.652 31.978 0.000
4102 1 11.362 33.208 0.000
4103 1 12.782 33.208 0.000
4104 1 13.492 31.978 0.000
4105 1 14.912 31.978 0.000
4106 1 15.622 33.208 0.000
4107 1 17.042 33.208 0.000
4108 3 17.042 33.208 1.100
4109 1 17.753 31.978 0.000
4110 1 19.173 31.978 0.000
4111 1 19.883 33.208 0.000
4112 1 21.303 33.208 0.000
4113 1 22.013 31.978 0.000
4114 2 22.013 31.978 -1.500
4115 3 23.113 31.978 -1.633
4116 3 21.463 32.931 -1.633
4117 3 21.463 31.026 -1.633
4118 1 23.433 31.978 0.000
4119 1 24.143 33.208 0.000
4120 1 25.564 33.208 0.000
4121 1 26.274 31.978 0.000
4122 1 27.694 31.978 0.000
4123 3 27.694 31.978 -1.100
4124 1 28.404 33.208 0.000
4125 3 28.404 33.208 1.100
4126 1 29.824 33.208 0.000
4127 1 30.534 31.978 0.000
4128 3 30.534 31.978 -1.100
4129 1 31.954 31.978 0.000
4130 1 32.665 33.208 0.000
4131 3 32.665 33.208 1.100
4132 1 34.085 33.208 0.000
4133 1 34.795 31.978 0.000
4134 1 36.215 31.978 0.000
4135 1 36.925 33.208 0.000
4136 1 38.345 33.208 0.000
4137 1 39.055 31.978 0.000
4138 1 40.476 31.978 0.000
4139 1 41.186 33.208 0.000
4140 1 42.606 33.208 0.000
4141 1 43.316 31.978 0.000
4142 1 44.736 31.978 0.000
4143 1 45.446 33.208 0.000
4144 1 46.867 33.208 0.000
4145 1 47.577 31.978 0.000
4146 1 48.997 31.978 0.000
4147 1 49.707 33.208 0.000
4148 1 51.127 33.208 0.000
4149 1 51.837 31.978 0.000
4150 1 53.258 31.978 0.000
4151 1 53.968 33.208 0.000
4152 1 55.388 33.208 0.000
4153 1 56.098 31.978 0.000
4154 1 57.518 31.978 0.000
4155 2 57.518 31.978 1.500
4156 3 58.618 31.978 1.633
4157 3 56.968 32.931 1.633
4158 3 56.968 31.026 1.633
4159 1 58.228 33.208 0.000
4160 1 59.648 33.208 0.000
4161 1 60.358 31.978 0.000
4162 1 61.779 31.978 0.000
4163 3 61.779 31.978 1.100
4164 1 62.489 33.208 0.000
4165 3 62.489 33.208 -1.100
4166 1 63.909 33.208 0.000
4167 1 64.619 31.978 0.000
4168 1 66.039 31.978 0.000
4169 1 66.749 33.208 0.000
4170 1 68.170 33.208 0.000
4171 1 68.880 31.978 0.000
4172 1 70.300 31.978 0.000
4173 1 71.010 33.208 0.000
4174 1 72.430 33.208 0.000
4175 1 73.140 31.978 0.000
4176 3 73.140 31.978 1.100
4177 1 74.561 31.978 0.000
4178 1 75.271 33.208 0.000
4179 1 76.691 33.208 0.000
4180 3 76.691 33.208 1.100
4181 1 77.401 31.978 0.000
4182 1 78.821 31.978 0.000
4183 1 79.531 33.208 0.000
4184 1 80.951 33.208 0.000
4185 1 81.662 31.978 0.000
4186 1 83.082 31.978 0.000
4187 2 83.082 31.978 -1.500
4188 3 84.182 31.978 -1.633
4189 3 82.532 32.931 -1.633
4190 3 82.532 31.026 -1.633
4191 1 83.792 33.208 0.000
4192 1 85.212 33.208 0.000
4193 1 85.922 31.978 0.000
4194 1 87.342 31.978 0.000
4195 1 88.052 33.208 0.000
4196 1 89.473 33.208 0.000
4197 1 90.183 31.978 0.000
4198 1 91.603 31.978 0.000
4199 2 91.603 31.978 -1.500
4200 3 92.703 31.978 -1.633
4201 3 91.053 32.931 -1.633
4202 3 91.053 31.026 -1.633
4203 1 92.313 33.208 0.000
4204 1 93.733 33.208 0.000
4205 1 94.443 31.978 0.000
4206 1 95.864 31.978 0.000
4207 1 96.574 33.208 0.000
4208 1 97.994 33.208 0.000
4209 1 98.704 31.978 0.000
4210 1 100.124 31.978 0.000
4211 1 100.834 33.208 0.000
4212 1 102.254 33.208 0.000
4213 1 102.965 31.978 0.000
4214 2 102.965 31.978 1.500
4215 3 104.064 31.978 1.633
4216 3 102.415 32.931 1.633
4217 3 102.415 31.026 1.633
4218 1 104.385 31.978 0.000
4219 1 105.095 33.208 0.000
4220 1 106.515 33.208 0.000
4221 1 107.225 31.978 0.000
4222 1 108.645 31.978 0.000
4223 2 108.645 31.978 -1.500
4224 3 109.745 31.978 -1.633
4225 3 108.095 32.931 -1.633
4226 3 108.095 31.026 -1.633
4227 1 109.355 33.208 0.000
4228 1 110.776 33.208 0.000
4229 3 110.776 33.208 -1.100
4230 1 111.486 31.978 0.000
4231 1 112.906 31.978 0.000
4232 1 113.616 33.208 0.000
4233 1 115.036 33.208 0.000
4234 3 115.036 33.208 1.100
4235 1 115.746 31.978 0.000
4236 1 117.167 31.978 0.000
4237 1 117.877 33.208 0.000
4238 1 119.297 33.208 0.000
4239 1 120.007 31.978 0.000
4240 1 121.427 31.978 0.000
4241 1 122.137 33.208 0.000
4242 1 123.557 33.208 0.000
4243 1 124.267 31.978 0.000
4244 2 124.267 31.978 1.500
4245 3 125.367 31.978 1.633
4246 3 123.718 32.931 1.633
4247 3 123.718 31.026 1.633
4248 1 125.688 31.978 0.000
4249 1 126.398 33.208 0.000
4250 1 127.818 33.208 0.000
4251 1 128.528 31.978 0.000
4252 2 128.528 31.978 1.500
4253 3 129.628 31.978 1.633
4254 3 127.978 32.931 1.633
4255 3 127.978 31.026 1.633
4256 1 129.948 31.978 0.000
4257 1 130.658 33.208 0.000
4258 1 132.079 33.208 0.000
4259 1 132.789 31.978 0.000
4260 1 134.209 31.978 0.000
4261 2 134.209 31.978 1.500
4262 3 135.309 31.978 1.633
4263 3 133.659 32.931 1.633
4264 3 133.659 31.026 1.633
4265 1 134.919 33.208 0.000
4266 1 136.339 33.208 0.000
4267 1 137.049 31.978 0.000
4268 1 138.470 31.978 0.000
4269 1 139.180 33.208 0.000
4270 2 139.180 33.208 -1.500
4271 3 140.280 33.208 -1.633
4272 3 138.630 34.161 -1.633
4273 3 138.630 32.255 -1.633
4274 1 140.600 33.208 0.000
4275 1 141.310 31.978 0.000
4276 1 142.730 31.978 0.000
4277 2 142.730 31.978 1.500
4278 3 143.830 31.978 1.633
4279 3 142.180 32.931 1.633
4280 3 142.180 31.026 1.633
4281 1 143.440 33.208 0.000
4282 1 144.860 33.208 0.000
4283 1 145.571 31.978 0.000
4284 3 145.571 31.978 1.100
4285 1 146.991 31.978 0.000
4286 1 147.701 33.208 0.000
4287 1 149.121 33.208 0.000
4288 1 149.831 31.978 0.000
4289 1 151.251 31.978 0.000
4290 1 151.961 33.208 0.000
4291 1 153.382 33.208 0.000
4292 1 154.092 31.978 0.000
4293 1 155.512 31.978 0.000
4294 1 156.222 33.208 0.000
4295 1 157.642 33.208 0.000
4296 1 158.352 31.978 0.000
4297 1 159.773 31.978 0.000
4298 1 160.483 33.208 0.000
4299 2 160.483 33.208 1.500
4300 3 161.583 33.208 1.633
4301 3 159.933 34.161 1.633
4302 3 159.933 32.255 1.633
4303 1 161.903 33.208 0.000
4304 1 162.613 31.978 0.000
4305 1 164.033 31.978 0.000
4306 1 164.743 33.208 0.000
4307 1 166.163 33.208 0.000
4308 1 166.874 31.978 0.000
4309 1 168.294 31.978 0.000
4310 1 169.004 33.208 0.000
4311 1 170.424 33.208 0.000
4312 1 171.134 31.978 0.000
4313 2 171.134 31.978 -1.500
4314 3 172.234 31.978 -1.633
4315 3 170.584 32.931 -1.633
4316 3 170.584 31.026 -1.633
4317 1 172.554 31.978 0.000
4318 1 173.264 33.208 0.000
4319 1 174.685 33.208 0.000
4320 1 175.395 31.978 0.000
4321 1 176.815 31.978 0.000
4322 1 177.525 33.208 0.000
4323 1 178.945 33.208 0.000
4324 1 179.655 31.978 0.000
4325 1 181.076 31.978 0.000
4326 3 181.076 31.978 1.100
4327 1 181.786 33.208 0.000
4328 1 183.206 33.208 0.000
4329 1 183.916 31.978 0.000
4330 1 185.336 31.978 0.000
4331 1 186.046 33.208 0.000
4332 2 186.046 33.208 1.500
4333 3 187.146 33.208 1.633
4334 3 185.496 34.161 1.633
4335 3 185.496 32.255 1.633
4336 1 187.466 33.208 0.000
4337 1 188.177 31.978 0.000
4338 1 189.597 31.978 0.000
4339 1 190.307 33.208 0.000
4340 3 190.307 33.208 1.100
4341 1 191.727 33.208 0.000
4342 1 192.437 31.978 0.000
4343 1 193.857 31.978 0.000
4344 1 194.567 33.208 0.000
4345 1 195.988 33.208 0.000
4346 1 196.698 31.978 0.000
4347 1 198.118 31.978 0.000
4348 2 198.118 31.978 1.500
4349 3 199.218 31.978 1.633
4350 3 197.568 32.931 1.633
4351 3 197.568 31.026 1.633
4352 1 198.828 33.208 0.000
4353 1 200.248 33.208 0.000
4354 1 200.958 31.978 0.000
4355 1 202.379 31.978 0.000
4356 1 203.089 33.208 0.000
4357 3 203.089 33.208 1.100
4358 1 204.509 33.208 0.000
4359 1 205.219 31.978 0.000
4360 1 206.639 31.978 0.000
4361 1 207.349 33.208 0.000
4362 1 208.769 33.208 0.000
4363 1 209.480 31.978 0.000
4364 2 209.480 31.978 1.500
4365 3 210.580 31.978 1.633
4366 3 208.930 32.931 1.633
4367 3 208.930 31.026 1.633
4368 1 210.900 31.978 0.000
4369 1 211.610 33.208 0.000
4370 1 213.030 33.208 0.000
4371 1 213.740 31.978 0.000
4372 1 215.160 31.978 0.000
4373 1 215.870 33.208 0.000
4374 1 217.291 33.208 0.000
4375 1 218.001 31.978 0.000
4376 1 219.421 31.978 0.000
4377 1 220.131 33.208 0.000
4378 1 221.551 33.208 0.000
4379 1 222.261 31.978 0.000
4380 1 223.681 31.978 0.000
4381 3 223.681 31.978 1.100
4382 1 224.392 33.208 0.000
4383 1 225.812 33.208 0.000
4384 1 226.522 31.978 0.000
4385 1 227.942 31.978 0.000
4386 1 228.652 33.208 0.000
4387 1 230.072 33.208 0.000
4388 2 230.072 33.208 -1.500
4389 3 231.172 33.208 -1.633
4390 3 229.522 34.161 -1.633
4391 3 229.522 32.255 -1.633
4392 1 230.783 31.978 0.000
4393 1 232.203 31.978 0.000
4394 1 232.913 33.208 0.000
4395 1 234.333 33.208 0.000
4396 1 235.043 31.978 0.000
4397 1 236.463 31.978 0.000
4398 1 237.173 33.208 0.000
4399 1 238.594 33.208 0.000
4400 1 239.304 31.978 0.000
4401 1 240.724 31.978 0.000
4402 1 241.434 33.208 0.000
4403 3 241.434 33.208 -1.100
4404 1 242.854 33.208 0.000
4405 3 242.854 33.208 -1.100
4406 1 243.564 31.978 0.000
4407 1 244.985 31.978 0.000
4408 1 245.695 33.208 0.000
4409 1 247.115 33.208 0.000
4410 1 247.825 31.978 0.000
4411 1 249.245 31.978 0.000
4412 1 249.955 33.208 0.000
4413 3 249.955 33.208 1.100
4414 1 0.000 35.668 0.000
4415 3 0.000 35.668 1.100
4416 1 0.710 34.438 0.000
4417 3 0.710 34.438 1.100
4418 1 2.130 34.438 0.000
4419 3 2.130 34.438 1.100
4420 1 2.840 35.668 0.000
4421 1 4.261 35.668 0.000
4422 1 4.971 34.438 0.000
4423 3 4.971 34.438 -1.100
4424 1 6.391 34.438 0.000
4425 1 7.101 35.668 0.000
4426 1 8.521 35.668 0.000
4427 1 9.231 34.438 0.000
4428 1 10.652 34.438 0.000
4429 1 11.362 35.668 0.000
4430 1 12.782 35.668 0.000
4431 1 13.492 34.438 0.000
4432 1 14.912 34.438 0.000
4433 1 15.622 35.668 0.000
4434 1 17.042 35.668 0.000
4435 1 17.753 34.438 0.000
4436 1 19.173 34.438 0.000
4437 3 19.173 34.438 1.100
4438 1 19.883 35.668 0.000
4439 1 21.303 35.668 0.000
4440 1 22.013 34.438 0.000
4441 3 22.013 34.438 1.100
4442 1 23.433 34.438 0.000
4443 1 24.143 35.668 0.000
4444 3 24.143 35.668 1.100
4445 1 25.564 35.668 0.000
4446 1 26.274 34.438 0.000
4447 2 26.274 34.438 1.500
4448 3 27.374 34.438 1.633
4449 3 25.724 35.391 1.633
4450 3 25.724 33.485 1.633
4451 1 27.694 34.438 0.000
4452 1 28.404 35.668 0.000
4453 3 28.404 35.668 1.100
4454 1 29.824 35.668 0.000
4455 1 30.534 34.438 0.000
4456 1 31.954 34.438 0.000
4457 1 32.665 35.668 0.000
4458 1 34.085 35.668 0.000
4459 1 34.795 34.438 0.000
4460 3 34.795 34.438 1.100
4461 1 36.215 34.438 0.000
4462 1 36.925 35.668 0.000
4463 1 38.345 35.668 0.000
4464 1 39.055 34.438 0.000
4465 1 40.476 34.438 0.000
4466 1 41.186 35.668 0.000
4467 1 42.606 35.668 0.000
4468 1 43.316 34.438 0.000
4469 1 44.736 34.438 0.000
4470 3 44.736 34.438 -1.100
4471 1 45.446 35.668 0.000
4472 1 46.867 35.668 0.000
4473 3 46.867 35.668 1.100
4474 1 47.577 34.438 0.000
4475 1 48.997 34.438 0.000
4476 1 49.707 35.668 0.000
4477 1 51.127 35.668 0.000
4478 3 51.127 35.668 1.100
4479 1 51.837 34.438 0.000
4480 1 53.258 34.438 0.000
4481 1 53.968 35.668 0.000
4482 1 55.388 35.668 0.000
4483 1 56.098 34.438 0.000
4484 1 57.518 34.438 0.000
4485 1 58.228 35.668 0.000
4486 1 59.648 35.668 0.000
4487 1 60.358 34.438 0.000
4488 1 61.779 34.438 0.000
4489 1 62.489 35.668 0.000
4490 1 63.909 35.668 0.000
4491 1 64.619 34.438 0.000
4492 2 64.619 34.438 1.500
4493 3 65.719 34.438 1.633
4494 3 64.069 35.391 1.633
4495 3 64.069 33.485 1.633
4496 1 66.039 34.438 0.000
4497 1 66.749 35.668 0.000
4498 1 68.170 35.668 0.000
4499 1 68.880 34.438 0.000
4500 1 70.300 34.438 0.000
4501 1 71.010 35.668 0.000
4502 1 72.430 35.668 0.000
4503 1 73.140 34.438 0.000
4504 1 74.561 34.438 0.000
4505 1 75.271 35.668 0.000
4506 1 76.691 35.668 0.000
4507 1 77.401 34.438 0.000
4508 1 78.821 34.438 0.000
4509 1 79.531 35.668 0.000
4510 1 80.951 35.668 0.000
4511 1 81.662 34.438 0.000
4512 1 83.082 34.438 0.000
4513 3 83.082 34.438 1.100
4514 1 83.792 35.668 0.000
4515 1 85.212 35.668 0.000
4516 1 85.922 34.438 0.000
4517 1 87.342 34.438 0.000
4518 1 88.052 35.668 0.000
4519 1 89.473 35.668 0.000
4520 1 90.183 34.438 0.000
4521 1 91.603 34.438 0.000
4522 1 92.313 35.668 0.000
4523 1 93.733 35.668 0.000
4524 1 94.443 34.438 0.000
4525 1 95.864 34.438 0.000
4526 1 96.574 35.668 0.000
4527 3 96.574 35.668 -1.100
4528 1 97.994 35.668 0.000
4529 1 98.704 34.438 0.000
4530 1 100.124 34.438 0.000
4531 1 100.834 35.668 0.000
4532 1 102.254 35.668 0.000
4533 2 102.254 35.668 -1.500
4534 3 103.354 35.668 -1.633
4535 3 101.704 36.621 -1.633
4536 3 101.704 34.715 -1.633
4537 1 102.965 34.438 0.000
4538 1 104.385 34.438 0.000
4539 1 105.095 35.668 0.000
4540 1 106.515 35.668 0.000
4541 1 107.225 34.438 0.000
4542 1 108.645 34.438 0.000
4543 1 109.355 35.668 0.000
4544 1 110.776 35.668 0.000
4545 3 110.776 35.668 -1.100
4546 1 111.486 34.438 0.000
4547 1 112.906 34.438 0.000
4548 2 112.906 34.438 -1.500
4549 3 114.006 34.438 -1.633
4550 3 112.356 35.391 -1.633
4551 3 112.356 33.485 -1.633
4552 1 113.616 35.668 0.000
4553 1 115.036 35.668 0.000
4554 1 115.746 34.438 0.000
4555 1 117.167 34.438 0.000
4556 1 117.877 35.668 0.000
4557 1 119.297 35.668 0.000
4558 1 120.007 34.438 0.000
4559 1 121.427 34.438 0.000
4560 3 121.427 34.438 -1.100
4561 1 122.137 35.668 0.000
4562 1 123.557 35.668 0.000
4563 2 123.557 35.668 1.500
4564 3 124.657 35.668 1.633
4565 3 123.007 36.621 1.633
4566 3 123.007 34.715 1.633
4567 1 124.267 34.438 0.000
4568 1 125.688 34.438 0.000
4569 1 126.398 35.668 0.000
4570 1 127.818 35.668 0.000
4571 2 127.818 35.668 -1.500
4572 3 128.918 35.668 -1.633
4573 3 127.268 36.621 -1.633
4574 3 127.268 34.715 -1.633
4575 1 128.528 34.438 0.000
4576 1 129.948 34.438 0.000
4577 3 129.948 34.438 -1.100
4578 1 130.658 35.668 0.000
4579 1 132.079 35.668 0.000
4580 1 132.789 34.438 0.000
4581 1 134.209 34.438 0.000
4582 3 134.209 34.438 -1.100
4583 1 134.919 35.668 0.000
4584 1 136.339 35.668 0.000
4585 1 137.049 34.438 0.000
4586 1 138.470 34.438 0.000
4587 1 139.180 35.668 0.000
4588 1 140.600 35.668 0.000
4589 1 141.310 34.438 0.000
4590 1 142.730 34.438 0.000
4591 1 143.440 35.668 0.000
4592 1 144.860 35.668 0.000
4593 1 145.571 34.438 0.000
4594 1 146.991 34.438 0.000
4595 1 147.701 35.668 0.000
4596 1 149.121 35.668 0.000
4597 3 149.121 35.668 -1.100
4598 1 149.831 34.438 0.000
4599 1 151.251 34.438 0.000
4600 1 151.961 35.668 0.000
4601 1 153.382 35.668 0.000
4602 1 154.092 34.438 0.000
4603 1 155.512 34.438 0.000
4604 1 156.222 35.668 0.000
4605 1 157.642 35.668 0.000
4606 1 158.352 34.438 0.000
4607 3 158.352 34.438 1.100
4608 1 159.773 34.438 0.000
4609 1 160.483 35.668 0.000
4610 1 161.903 35.668 0.000
4611 1 162.613 34.438 0.000
4612 3 162.613 34.438 1.100
4613 1 164.033 34.438 0.000
4614 1 164.743 35.668 0.000
4615 1 166.163 35.668 0.000
4616 1 166.874 34.438 0.000
4617 2 166.874 34.438 -1.500
4618 3 167.974 34.438 -1.633
4619 3 166.323 35.391 -1.633
4620 3 166.323 33.485 -1.633
4621 1 168.294 34.438 0.000
4622 1 169.004 35.668 0.000
4623 2 169.004 35.668 1.500
4624 3 170.104 35.668 1.633
4625 3 168.454 36.621 1.633
4626 3 168.454 34.715 1.633
4627 1 170.424 35.668 0.000
4628 1 171.134 34.438 0.000
4629 1 172.554 34.438 0.000
4630 2 172.554 34.438 1.500
4631 3 173.654 34.438 1.633
4632 3 172.004 35.391 1.633
4633 3 172.004 33.485 1.633
4634 1 173.264 35.668 0.000
4635 1 174.685 35.668 0.000
4636 1 175.395 34.438 0.000
4637 1 176.815 34.438 0.000
4638 1 177.525 35.668 0.000
4639 1 178.945 35.668 0.000
4640 1 179.655 34.438 0.000
4641 1 181.076 34.438 0.000
4642 1 181.786 35.668 0.000
4643 1 183.206 35.668 0.000
4644 1 183.916 34.438 0.000
4645 1 185.336 34.438 0.000
4646 1 186.046 35.668 0.000
4647 1 187.466 35.668 0.000
4648 1 188.177 34.438 0.000
4649 1 189.597 34.438 0.000
4650 1 190.307 35.668 0.000
4651 1 191.727 35.668 0.000
4652 1 192.437 34.438 0.000
4653 1 193.857 34.438 0.000
4654 1 194.567 35.668 0.000
4655 1 195.988 35.668 0.000
4656 2 195.988 35.668 1.500
4657 3 197.088 35.668 1.633
4658 3 195.438 36.621 1.633
4659 3 195.438 34.715 1.633
4660 1 196.698 34.438 0.000
4661 1 198.118 34.438 0.000
4662 1 198.828 35.668 0.000
4663 1 200.248 35.668 0.000
4664 2 200.248 35.668 1.500
4665 3 201.348 35.668 1.633
4666 3 199.698 36.621 1.633
4667 3 199.698 34.715 1.633
4668 1 200.958 34.438 0.000
4669 1 202.379 34.438 0.000
4670 1 203.089 35.668 0.000
4671 1 204.509 35.668 0.000
4672 3 204.509 35.668 1.100
4673 1 205.219 34.438 0.000
4674 1 206.639 34.438 0.000
4675 1 207.349 35.668 0.000
4676 1 208.769 35.668 0.000
4677 1 209.480 34.438 0.000
4678 1 210.900 34.438 0.000
4679 1 211.610 35.668 0.000
4680 1 213.030 35.668 0.000
4681 1 213.740 34.438 0.000
4682 1 215.160 34.438 0.000
4683 1 215.870 35.668 0.000
4684 1 217.291 35.668 0.000
4685 1 218.001 34.438 0.000
4686 1 219.421 34.438 0.000
4687 1 220.131 35.668 0.000
4688 1 221.551 35.668 0.000
4689 1 222.261 34.438 0.000
4690 1 223.681 34.438 0.000
4691 1 224.392 35.668 0.000
4692 1 225.812 35.668 0.000
4693 1 226.522 34.438 0.000
4694 1 227.942 34.438 0.000
4695 1 228.652 35.668 0.000
4696 1 230.072 35.668 0.000
4697 1 230.783 34.438 0.000
4698 1 232.203 34.438 0.000
4699 1 232.913 35.668 0.000
4700 1 234.333 35.668 0.000
4701 1 235.043 34.438 0.000
4702 1 236.463 34.438 0.000
4703 1 237.173 35.668 0.000
4704 1 238.594 35.668 0.000
4705 1 239.304 34.438 0.000
4706 3 239.304 34.438 -1.100
4707 1 240.724 34.438 0.000
4708 1 241.434 35.668 0.000
4709 1 242.854 35.668 0.000
4710 1 243.564 34.438 0.000
4711 1 244.985 34.438 0.000
4712 2 244.985 34.438 -1.500
4713 3 246.085 34.438 -1.633
4714 3 244.435 35.391 -1.633
4715 3 244.435 33.485 -1.633
4716 1 245.695 35.668 0.000
4717 1 247.115 35.668 0.000
4718 1 247.825 34.438 0.000
4719 3 247.825 34.438 1.100
4720 1 249.245 34.438 0.000
4721 1 249.955 35.668 0.000
4722 1 0.000 38.128 0.000
4723 1 0.710 36.898 0.000
4724 3 0.710 36.898 1.100
4725 1 2.130 36.898 0.000
4726 1 2.840 38.128 0.000
4727 1 4.261 38.128 0.000
4728 1 4.971 36.898 0.000
4729 1 6.391 36.898 0.000
4730 1 7.101 38.128 0.000
4731 3 7.101 38.128 1.100
4732 1 8.521 38.128 0.000
4733 1 9.231 36.898 0.000
4734 1 10.652 36.898 0.000
4735 1 11.362 38.128 0.000
4736 1 12.782 38.128 0.000
4737 1 13.492 36.898 0.000
4738 1 14.912 36.898 0.000
4739 1 15.622 38.128 0.000
4740 1 17.042 38.128 0.000
4741 1 17.753 36.898 0.000
4742 1 19.173 36.898 0.000
4743 1 19.883 38.128 0.000
4744 2 19.883 38.128 -1.500
4745 3 20.983 38.128 -1.633
4746 3 19.333 39.080 -1.633
4747 3 19.333 37.175 -1.633
4748 1 21.303 38.128 0.000
4749 1 22.013 36.898 0.000
4750 1 23.433 36.898 0.000
4751 1 24.143 38.128 0.000
4752 1 25.564 38.128 0.000
4753 3 25.564 38.128 -1.100
4754 1 26.274 36.898 0.000
4755 1 27.694 36.898 0.000
4756 2 27.694 36.898 -1.500
4757 3 28.794 36.898 -1.633
4758 3 27.144 37.851 -1.633
4759 3 27.144 35.945 -1.633
4760 1 28.404 38.128 0.000
4761 1 29.824 38.128 0.000
4762 1 30.534 36.898 0.000
4763 1 31.954 36.898 0.000
4764 1 32.665 38.128 0.000
4765 1 34.085 38.128 0.000
4766 1 34.795 36.898 0.000
4767 1 36.215 36.898 0.000
4768 1 36.925 38.128 0.000
4769 1 38.345 38.128 0.000
4770 1 39.055 36.898 0.000
4771 1 40.476 36.898 0.000
4772 1 41.186 38.128 0.000
4773 1 42.606 38.128 0.000
4774 2 42.606 38.128 -1.500
4775 3 43.706 38.128 -1.633
4776 3 42.056 39.080 -1.633
4777 3 42.056 37.175 -1.633
4778 1 43.316 36.898 0.000
4779 1 44.736 36.898 0.000
4780 1 45.446 38.128 0.000
4781 3 45.446 38.128 1.100
4782 1 46.867 38.128 0.000
4783 3 46.867 38.128 1.100
4784 1 47.577 36.898 0.000
4785 1 48.997 36.898 0.000
4786 1 49.707 38.128 0.000
4787 2 49.707 38.128 -1.500
4788 3 50.807 38.128 -1.633
4789 3 49.157 39.080 -1.633
4790 3 49.157 37.175 -1.633
4791 1 51.127 38.128 0.000
4792 1 51.837 36.898 0.000
4793 1 53.258 36.898 0.000
4794 1 53.968 38.128 0.000
4795 1 55.388 38.128 0.000
4796 1 56.098 36.898 0.000
4797 1 57.518 36.898 0.000
4798 2 57.518 36.898 1.500
4799 3 58.618 36.898 1.633
4800 3 56.968 37.851 1.633
4801 3 56.968 35.945 1.633
4802 1 58.228 38.128 0.000
4803 1 59.648 38.128 0.000
4804 3 59.648 38.128 -1.100
4805 1 60.358 36.898 0.000
4806 1 61.779 36.898 0.000
4807 1 62.489 38.128 0.000
4808 1 63.909 38.128 0.000
4809 1 64.619 36.898 0.000
4810 1 66.039 36.898 0.000
4811 2 66.039 36.898 -1.500
4812 3 67.139 36.898 -1.633
4813 3 65.489 37.851 -1.633
4814 3 65.489 35.945 -1.633
4815 1 66.749 38.128 0.000
4816 1 68.170 38.128 0.000
4817 3 68.170 38.128 1.100
4818 1 68.880 36.898 0.000
4819 1 70.300 36.898 0.000
4820 1 71.010 38.128 0.000
4821 1 72.430 38.128 0.000
4822 1 73.140 36.898 0.000
4823 1 74.561 36.898 0.000
4824 3 74.561 36.898 1.100
4825 1 75.271 38.128 0.000
4826 1 76.691 38.128 0.000
4827 1 77.401 36.898 0.000
4828 1 78.821 36.898 0.000
4829 3 78.821 36.898 -1.100
4830 1 79.531 38.128 0.000
4831 1 80.951 38.128 0.000
4832 1 81.662 36.898 0.000
4833 1 83.082 36.898 0.000
4834 2 83.082 36.898 1.500
4835 3 84.182 36.898 1.633
4836 3 82.532 37.851 1.633
4837 3 82.532 35.945 1.633
4838 1 83.792 38.128 0.000
4839 1 85.212 38.128 0.000
4840 1 85.922 36.898 0.000
4841 1 87.342 36.898 0.000
4842 1 88.052 38.128 0.000
4843 1 89.473 38.128 0.000
4844 1 90.183 36.898 0.000
4845 1 91.603 36.898 0.000
4846 3 91.603 36.898 -1.100
4847 1 92.313 38.128 0.000
4848 1 93.733 38.128 0.000
4849 1 94.443 36.898 0.000
4850 1 95.864 36.898 0.000
4851 1 96.574 38.128 0.000
4852 1 97.994 38.128 0.000
4853 1 98.704 36.898 0.000
4854 3 98.704 36.898 -1.100
4855 1 100.124 36.898 0.000
4856 1 100.834 38.128 0.000
4857 1 102.254 38.128 0.000
4858 1 102.965 36.898 0.000
4859 1 104.385 36.898 0.000
4860 1 105.095 38.128 0.000
4861 1 106.515 38.128 0.000
4862 1 107.225 36.898 0.000
4863 3 107.225 36.898 1.100
4864 1 108.645 36.898 0.000
4865 1 109.355 38.128 0.000
4866 1 110.776 38.128 0.000
4867 2 110.776 38.128 -1.500
4868 3 111.876 38.128 -1.633
4869 3 110.226 39.080 -1.633
4870 3 110.226 37.175 -1.633
4871 1 111.486 36.898 0.000
4872 1 112.906 36.898 0.000
4873 1 113.616 38.128 0.000
4874 1 115.036 38.128 0.000
4875 1 115.746 36.898 0.000
4876 1 117.167 36.898 0.000
4877 2 117.167 36.898 1.500
4878 3 118.267 36.898 1.633
4879 3 116.617 37.851 1.633
4880 3 116.617 35.945 1.633
4881 1 117.877 38.128 0.000
4882 1 119.297 38.128 0.000
4883 1 120.007 36.898 0.000
4884 1 121.427 36.898 0.000
4885 1 122.137 38.128 0.000
4886 1 123.557 38.128 0.000
4887 1 124.267 36.898 0.000
4888 1 125.688 36.898 0.000
4889 1 126.398 38.128 0.000
4890 1 127.818 38.128 0.000
4891 1 128.528 36.898 0.000
4892 1 129.948 36.898 0.000
4893 1 130.658 38.128 0.000
4894 1 132.079 38.128 0.000
4895 1 132.789 36.898 0.000
4896 1 134.209 36.898 0.000
4897 1 134.919 38.128 0.000
4898 1 136.339 38.128 0.000
4899 1 137.049 36.898 0.000
4900 1 138.470 36.898 0.000
4901 2 138.470 36.898 1.500
4902 3 139.570 36.898 1.633
4903 3 137.919 37.851 1.633
4904 3 137.919 35.945 1.633
4905 1 139.180 38.128 0.000
4906 3 139.180 38.128 -1.100
4907 1 140.600 38.128 0.000
4908 1 141.310 36.898 0.000
4909 1 142.730 36.898 0.000
4910 3 142.730 36.898 -1.100
4911 1 143.440 38.128 0.000
4912 1 144.860 38.128 0.000
4913 1 145.571 36.898 0.000
4914 1 146.991 36.898 0.000
4915 1 147.701 38.128 0.000
4916 1 149.121 38.128 0.000
4917 3 149.121 38.128 -1.100
4918 1 149.831 36.898 0.000
4919 1 151.251 36.898 0.000
4920 1 151.961 38.128 0.000
4921 1 153.382 38.128 0.000
4922 1 154.092 36.898 0.000
4923 1 155.512 36.898 0.000
4924 1 156.222 38.128 0.000
4925 1 157.642 38.128 0.000
4926 1 158.352 36.898 0.000
4927 1 159.773 36.898 0.000
4928 1 160.483 38.128 0.000
4929 1 161.903 38.128 0.000
4930 2 161.903 38.128 1.500
4931 3 163.003 38.128 1.633
4932 3 161.353 39.080 1.633
4933 3 161.353 37.175 1.633
4934 1 162.613 36.898 0.000
4935 1 164.033 36.898 0.000
4936 1 164.743 38.128 0.000
4937 1 166.163 38.128 0.000
4938 3 166.163 38.128 -1.100
4939 1 166.874 36.898 0.000
4940 1 168.294 36.898 0.000
4941 1 169.004 38.128 0.000
4942 1 170.424 38.128 0.000
4943 1 171.134 36.898 0.000
4944 1 172.554 36.898 0.000
4945 1 173.264 38.128 0.000
4946 1 174.685 38.128 0.000
4947 1 175.395 36.898 0.000
4948 1 176.815 36.898 0.000
4949 1 177.525 38.128 0.000
4950 1 178.945 38.128 0.000
4951 1 179.655 36.898 0.000
4952 1 181.076 36.898 0.000
4953 1 181.786 38.128 0.000
4954 1 183.206 38.128 0.000
4955 1 183.916 36.898 0.000
4956 1 185.336 36.898 0.000
4957 3 185.336 36.898 -1.100
4958 1 186.046 38.128 0.000
4959 1 187.466 38.128 0.000
4960 1 188.177 36.898 0.000
4961 3 188.177 36.898 1.100
4962 1 189.597 36.898 0.000
4963 2 189.597 36.898 -1.500
4964 3 190.697 36.898 -1.633
4965 3 189.047 37.851 -1.633
4966 3 189.047 35.945 -1.633
4967 1 190.307 38.128 0.000
4968 1 191.727 38.128 0.000
4969 1 192.437 36.898 0.000
4970 3 192.437 36.898 -1.100
4971 1 193.857 36.898 0.000
4972 1 194.567 38.128 0.000
4973 1 195.988 38.128 0.000
4974 1 196.698 36.898 0.000
4975 3 196.698 36.898 -1.100
4976 1 198.118 36.898 0.000
4977 1 198.828 38.128 0.000
4978 1 200.248 38.128 0.000
4979 1 200.958 36.898 0.000
4980 1 202.379 36.898 0.000
4981 1 203.089 38.128 0.000
4982 1 204.509 38.128 0.000
4983 3 204.509 38.128 -1.100
4984 1 205.219 36.898 0.000
4985 1 206.639 36.898 0.000
4986 1 207.349 38.128 0.000
4987 1 208.769 38.128 0.000
4988 1 209.480 36.898 0.000
4989 2 209.480 36.898 -1.500
4990 3 210.580 36.898 -1.633
4991 3 208.930 37.851 -1.633
4992 3 208.930 35.945 -1.633
4993 1 210.900 36.898 0.000
4994 1 211.610 38.128 0.000
4995 1 213.030 38.128 0.000
4996 1 213.740 36.898 0.000
4997 1 215.160 36.898 0.000
4998 1 215.870 38.128 0.000
4999 1 217.291 38.128 0.000
5000 1 218.001 36.898 0.000
5001 1 219.421 36.898 0.000
5002 1 220.131 38.128 0.000
5003 1 221.551 38.128 0.000
5004 1 222.261 36.898 0.000
5005 2 222.261 36.898 -1.500
5006 3 223.361 36.898 -1.633
5007 3 221.711 37.851 -1.633
5008 3 221.711 35.945 -1.633
5009 1 223.681 36.898 0.000
5010 1 224.392 38.128 0.000
5011 1 225.812 38.128 0.000
5012 2 225.812 38.128 1.500
5013 3 226.912 38.128 1.633
5014 3 225.262 39.080 1.633
5015 3 225.262 37.175 1.633
5016 1 226.522 36.898 0.000
5017 1 227.942 36.898 0.000
5018 1 228.652 38.128 0.000
5019 1 230.072 38.128 0.000
5020 3 230.072 38.128 1.100
5021 1 230.783 36.898 0.000
5022 1 232.203 36.898 0.000
5023 1 232.913 38.128 0.000
5024 1 234.333 38.128 0.000
5025 1 235.043 36.898 0.000
5026 1 236.463 36.898 0.000
5027 3 236.463 36.898 -1.100
5028 1 237.173 38.128 0.000
5029 2 237.173 38.128 1.500
5030 3 238.273 38.128 1.633
5031 3 236.623 39.080 1.633
5032 3 236.623 37.175 1.633
5033 1 238.594 38.128 0.000
5034 1 239.304 36.898 0.000
5035 2 239.304 36.898 -1.500
5036 3 240.404 36.898 -1.633
5037 3 238.754 37.851 -1.633
5038 3 238.754 35.945 -1.633
5039 1 240.724 36.898 0.000
5040 1 241.434 38.128 0.000
5041 1 242.854 38.128 0.000
5042 1 243.564 36.898 0.000
5043 2 243.564 36.898 1.500
5044 3 244.664 36.898 1.633
5045 3 243.014 37.851 1.633
5046 3 243.014 35.945 1.633
5047 1 244.985 36.898 0.000
5048 1 245.695 38.128 0.000
5049 1 247.115 38.128 0.000
5050 1 247.825 36.898 0.000
5051 1 249.245 36.898 0.000
5052 1 249.955 38.128 0.000
5053 1 0.000 40.588 0.000
5054 3 0.000 40.588 -1.100
5055 1 0.710 39.358 0.000
5056 1 2.130 39.358 0.000
5057 1 2.840 40.588 0.000
5058 1 4.261 40.588 0.000
5059 1 4.971 39.358 0.000
5060 2 4.971 39.358 -1.500
5061 3 6.071 39.358 -1.633
5062 3 4.421 40.310 -1.633
5063 3 4.421 38.405 -1.633
5064 1 6.391 39.358 0.000
5065 1 7.101 40.588 0.000
5066 1 8.521 40.588 0.000
5067 1 9.231 39.358 0.000
5068 1 10.652 39.358 0.000
5069 1 11.362 40.588 0.000
5070 3 11.362 40.588 1.100
5071 1 12.782 40.588 0.000
5072 1 13.492 39.358 0.000
5073 1 14.912 39.358 0.000
5074 1 15.622 40.588 0.000
5075 1 17.042 40.588 0.000
5076 1 17.753 39.358 0.000
5077 3 17.753 39.358 -1.100
5078 1 19.173 39.358 0.000
5079 1 19.883 40.588 0.000
5080 1 21.303 40.588 0.000
5081 1 22.013 39.358 0.000
5082 1 23.433 39.358 0.000
5083 2 23.433 39.358 -1.500
5084 3 24.533 39.358 -1.633
5085 3 22.883 40.310 -1.633
5086 3 22.883 38.405 -1.633
5087 1 24.143 40.588 0.000
5088 1 25.564 40.588 0.000
5089 1 26.274 39.358 0.000
5090 1 27.694 39.358 0.000
5091 1 28.404 40.588 0.000
5092 1 29.824 40.588 0.000
5093 1 30.534 39.358 0.000
5094 1 31.954 39.358 0.000
5095 3 31.954 39.358 -1.100
5096 1 32.665 40.588 0.000
5097 1 34.085 40.588 0.000
5098 1 34.795 39.358 0.000
5099 2 34.795 39.358 1.500
5100 3 35.895 39.358 1.633
5101 3 34.245 40.310 1.633
5102 3 34.245 38.405 1.633
5103 1 36.215 39.358 0.000
5104 1 36.925 40.588 0.000
5105 1 38.345 40.588 0.000
5106 1 39.055 39.358 0.000
5107 1 40.476 39.358 0.000
5108 1 41.186 40.588 0.000
5109 1 42.606 40.588 0.000
5110 1 43.316 39.358 0.000
5111 1 44.736 39.358 0.000
5112 1 45.446 40.588 0.000
5113 1 46.867 40.588 0.000
5114 1 47.577 39.358 0.000
5115 1 48.997 39.358 0.000
5116 1 49.707 40.588 0.000
5117 2 49.707 40.588 1.500
5118 3 50.807 40.588 1.633
5119 3 49.157 41.540 1.633
5120 3 49.157 39.635 1.633
5121 1 51.127 40.588 0.000
5122 1 51.837 39.358 0.000
5123 1 53.258 39.358 0.000
5124 1 53.968 40.588 0.000
5125 1 55.388 40.588 0.000
5126 1 56.098 39.358 0.000
5127 1 57.518 39.358 0.000
5128 1 58.228 40.588 0.000
5129 1 59.648 40.588 0.000
5130 1 60.358 39.358 0.000
5131 1 61.779 39.358 0.000
5132 1 62.489 40.588 0.000
5133 1 63.909 40.588 0.000
5134 1 64.619 39.358 0.000
5135 1 66.039 39.358 0.000
5136 1 66.749 40.588 0.000
5137 1 68.170 40.588 0.000
5138 1 68.880 39.358 0.000
5139 3 68.880 39.358 1.100
5140 1 70.300 39.358 0.000
5141 1 71.010 40.588 0.000
5142 3 71.010 40.588 1.100
5143 1 72.430 40.588 0.000
5144 1 73.140 39.358 0.000
5145 1 74.561 39.358 0.000
5146 1 75.271 40.588 0.000
5147 3 75.271 40.588 -1.100
5148 1 76.691 40.588 0.000
5149 1 77.401 39.358 0.000
5150 3 77.401 39.358 1.100
5151 1 78.821 39.358 0.000
5152 1 79.531 40.588 0.000
5153 1 80.951 40.588 0.000
5154 1 81.662 39.358 0.000
5155 1 83.082 39.358 0.000
5156 1 83.792 40.588 0.000
5157 1 85.212 40.588 0.000
5158 1 85.922 39.358 0.000
5159 3 85.922 39.358 1.100
5160 1 87.342 39.358 0.000
5161 2 87.342 39.358 -1.500
5162 3 88.442 39.358 -1.633
5163 3 86.792 40.310 -1.633
5164 3 86.792 38.405 -1.633
5165 1 88.052 40.588 0.000
5166 1 89.473 40.588 0.000
5167 1 90.183 39.358 0.000
5168 3 90.183 39.358 1.100
5169 1 91.603 39.358 0.000
5170 1 92.313 40.588 0.000
5171 3 92.313 40.588 1.100
5172 1 93.733 40.588 0.000
5173 1 94.443 39.358 0.000
5174 1 95.864 39.358 0.000
5175 1 96.574 40.588 0.000
5176 1 97.994 40.588 0.000
5177 1 98.704 39.358 0.000
5178 1 100.124 39.358 0.000
5179 1 100.834 40.588 0.000
5180 1 102.254 40.588 0.000
5181 1 102.965 39.358 0.000
5182 1 104.385 39.358 0.000
5183 1 105.095 40.588 0.000
5184 3 105.095 40.588 1.100
5185 1 106.515 40.588 0.000
5186 1 107.225 39.358 0.000
5187 3 107.225 39.358 -1.100
5188 1 108.645 39.358 0.000
5189 1 109.355 40.588 0.000
5190 1 110.776 40.588 0.000
5191 1 111.486 39.358 0.000
5192 1 112.906 39.358 0.000
5193 1 113.616 40.588 0.000
5194 1 115.036 40.588 0.000
5195 1 115.746 39.358 0.000
5196 1 117.167 39.358 0.000
5197 1 117.877 40.588 0.000
5198 2 117.877 40.588 -1.500
5199 3 118.977 40.588 -1.633
5200 3 117.327 41.540 -1.633
5201 3 117.327 39.635 -1.633
5202 1 119.297 40.588 0.000
5203 1 120.007 39.358 0.000
5204 1 121.427 39.358 0.000
5205 3 121.427 39.358 1.100
5206 1 122.137 40.588 0.000
5207 1 123.557 40.588 0.000
5208 1 124.267 39.358 0.000
5209 1 125.688 39.358 0.000
5210 1 126.398 40.588 0.000
5211 1 127.818 40.588 0.000
5212 1 128.528 39.358 0.000
5213 1 129.948 39.358 0.000
5214 3 129.948 39.358 -1.100
5215 1 130.658 40.588 0.000
5216 1 132.079 40.588 0.000
5217 1 132.789 39.358 0.000
5218 1 134.209 39.358 0.000
5219 1 134.919 40.588 0.000
5220 2 134.919 40.588 1.500
5221 3 136.019 40.588 1.633
5222 3 134.369 41.540 1.633
5223 3 134.369 39.635 1.633
5224 1 136.339 40.588 0.000
5225 1 137.049 39.358 0.000
5226 3 137.049 39.358 -1.100
5227 1 138.470 39.358 0.000
5228 1 139.180 40.588 0.000
5229 1 140.600 40.588 0.000
5230 3 140.600 40.588 1.100
5231 1 141.310 39.358 0.000
5232 1 142.730 39.358 0.000
5233 1 143.440 40.588 0.000
5234 1 144.860 40.588 0.000
5235 1 145.571 39.358 0.000
5236 2 145.571 39.358 -1.500
5237 3 146.671 39.358 -1.633
5238 3 145.020 40.310 -1.633
5239 3 145.020 38.405 -1.633
5240 1 146.991 39.358 0.000
5241 1 147.701 40.588 0.000
5242 2 147.701 40.588 1.500
5243 3 148.801 40.588 1.633
5244 3 147.151 41.540 1.633
5245 3 147.151 39.635 1.633
5246 1 149.121 40.588 0.000
5247 1 149.831 39.358 0.000
5248 1 151.251 39.358 0.000
5249 1 151.961 40.588 0.000
5250 1 153.382 40.588 0.000
5251 2 153.382 40.588 -1.500
5252 3 154.482 40.588 -1.633
5253 3 152.832 41.540 -1.633
5254 3 152.832 39.635 -1.633
5255 1 154.092 39.358 0.000
5256 1 155.512 39.358 0.000
5257 1 156.222 40.588 0.000
5258 1 157.642 40.588 0.000
5259 1 158.352 39.358 0.000
5260 1 159.773 39.358 0.000
5261 1 160.483 40.588 0.000
5262 1 161.903 40.588 0.000
5263 1 162.613 39.358 0.000
5264 1 164.033 39.358 0.000
5265 1 164.743 40.588 0.000
5266 1 166.163 40.588 0.000
5267 1 166.874 39.358 0.000
5268 1 168.294 39.358 0.000
5269 1 169.004 40.588 0.000
5270 1 170.424 40.588 0.000
5271 1 171.134 39.358 0.000
5272 1 172.554 39.358 0.000
5273 3 172.554 39.358 -1.100
5274 1 173.264 40.588 0.000
5275 1 174.685 40.588 0.000
5276 3 174.685 40.588 1.100
5277 1 175.395 39.358 0.000
5278 1 176.815 39.358 0.000
5279 1 177.525 40.588 0.000
5280 1 178.945 40.588 0.000
5281 1 179.655 39.358 0.000
5282 2 179.655 39.358 1.500
5283 3 180.755 39.358 1.633
5284 3 179.105 40.310 1.633
5285 3 179.105 38.405 1.633
5286 1 181.076 39.358 0.000
5287 1 181.786 40.588 0.000
5288 1 183.206 40.588 0.000
5289 1 183.916 39.358 0.000
5290 3 183.916 39.358 1.100
5291 1 185.336 39.358 0.000
5292 3 185.336 39.358 1.100
5293 1 186.046 40.588 0.000
5294 1 187.466 40.588 0.000
5295 1 188.177 39.358 0.000
5296 1 189.597 39.358 0.000
5297 1 190.307 40.588 0.000
5298 2 190.307 40.588 -1.500
5299 3 191.407 40.588 -1.633
5300 3 189.757 41.540 -1.633
5301 3 189.757 39.635 -1.633
5302 1 191.727 40.588 0.000
5303 1 192.437 39.358 0.000
5304 1 193.857 39.358 0.000
5305 2 193.857 39.358 1.500
5306 3 194.957 39.358 1.633
5307 3 193.307 40.310 1.633
5308 3 193.307 38.405 1.633
5309 1 194.567 40.588 0.000
5310 1 195.988 40.588 0.000
5311 1 196.698 39.358 0.000
5312 1 198.118 39.358 0.000
5313 3 198.118 39.358 1.100
5314 1 198.828 40.588 0.000
5315 1 200.248 40.588 0.000
5316 1 200.958 39.358 0.000
5317 1 202.379 39.358 0.000
5318 1 203.089 40.588 0.000
5319 1 204.509 40.588 0.000
5320 1 205.219 39.358 0.000
5321 1 206.639 39.358 0.000
5322 1 207.349 40.588 0.000
5323 1 208.769 40.588 0.000
5324 1 209.480 39.358 0.000
5325 3 209.480 39.358 1.100
5326 1 210.900 39.358 0.000
5327 1 211.610 40.588 0.000
5328 2 211.610 40.588 -1.500
5329 3 212.710 40.588 -1.633
5330 3 211.060 41.540 -1.633
5331 3 211.060 39.635 -1.633
5332 1 213.030 40.588 0.000
5333 1 213.740 39.358 0.000
5334 1 215.160 39.358 0.000
5335 1 215.870 40.588 0.000
5336 1 217.291 40.588 0.000
5337 1 218.001 39.358 0.000
5338 1 219.421 39.358 0.000
5339 1 220.131 40.588 0.000
5340 1 221.551 40.588 0.000
5341 3 221.551 40.588 1.100
5342 1 222.261 39.358 0.000
5343 1 223.681 39.358 0.000
5344 1 224.392 40.588 0.000
5345 1 225.812 40.588 0.000
5346 1 226.522 39.358 0.000
5347 1 227.942 39.358 0.000
5348 1 228.652 40.588 0.000
5349 1 230.072 40.588 0.000
5350 1 230.783 39.358 0.000
5351 1 232.203 39.358 0.000
5352 1 232.913 40.588 0.000
5353 1 234.333 40.588 0.000
5354 1 235.043 39.358 0.000
5355 1 236.463 39.358 0.000
5356 3 236.463 39.358 -1.100
5357 1 237.173 40.588 0.000
5358 3 237.173 40.588 -1.100
5359 1 238.594 40.588 0.000
5360 1 239.304 39.358 0.000
5361 3 239.304 39.358 -1.100
5362 1 240.724 39.358 0.000
5363 1 241.434 40.588 0.000
5364 1 242.854 40.588 0.000
5365 1 243.564 39.358 0.000
5366 1 244.985 39.358 0.000
5367 1 245.695 40.588 0.000
5368 1 247.115 40.588 0.000
5369 1 247.825 39.358 0.000
5370 1 249.245 39.358 0.000
5371 3 249.245 39.358 -1.100
5372 1 249.955 40.588 0.000
5373 1 0.000 43.048 0.000
5374 3 0.000 43.048 1.100
5375 1 0.710 41.818 0.000
5376 1 2.130 41.818 0.000
5377 1 2.840 43.048 0.000
5378 3 2.840 43.048 -1.100
5379 1 4.261 43.048 0.000
5380 1 4.971 41.818 0.000
5381 3 4.971 41.818 -1.100
5382 1 6.391 41.818 0.000
5383 3 6.391 41.818 -1.100
5384 1 7.101 43.048 0.000
5385 1 8.521 43.048 0.000
5386 1 9.231 41.818 0.000
5387 1 10.652 41.818 0.000
5388 1 11.362 43.048 0.000
5389 1 12.782 43.048 0.000
5390 1 13.492 41.818 0.000
5391 1 14.912 41.818 0.000
5392 1 15.622 43.048 0.000
5393 1 17.042 43.048 0.000
5394 1 17.753 41.818 0.000
5395 1 19.173 41.818 0.000
5396 1 19.883 43.048 0.000
5397 1 21.303 43.048 0.000
5398 3 21.303 43.048 -1.100
5399 1 22.013 41.818 0.000
5400 1 23.433 41.818 0.000
5401 1 24.143 43.048 0.000
5402 1 25.564 43.048 0.000
5403 1 26.274 41.818 0.000
5404 2 26.274 41.818 -1.500
5405 3 27.374 41.818 -1.633
5406 3 25.724 42.770 -1.633
5407 3 25.724 40.865 -1.633
5408 1 27.694 41.818 0.000
5409 1 28.404 43.048 0.000
5410 1 29.824 43.048 0.000
5411 1 30.534 41.818 0.000
5412 1 31.954 41.818 0.000
5413 1 32.665 43.048 0.000
5414 1 34.085 43.048 0.000
5415 1 34.795 41.818 0.000
5416 1 36.215 41.818 0.000
5417 1 36.925 43.048 0.000
5418 1 38.345 43.048 0.000
5419 2 38.345 43.048 -1.500
5420 3 39.445 43.048 -1.633
5421 3 37.795 44.000 -1.633
5422 3 37.795 42.095 -1.633
5423 1 39.055 41.818 0.000
5424 1 40.476 41.818 0.000
5425 2 40.476 41.818 1.500
5426 3 41.576 41.818 1.633
5427 3 39.926 42.770 1.633
5428 3 39.926 40.865 1.633
5429 1 41.186 43.048 0.000
5430 1 42.606 43.048 0.000
5431 1 43.316 41.818 0.000
5432 1 44.736 41.818 0.000
5433 1 45.446 43.048 0.000
5434 2 45.446 43.048 1.500
5435 3 46.546 43.048 1.633
5436 3 44.896 44.000 1.633
5437 3 44.896 42.095 1.633
5438 1 46.867 43.048 0.000
5439 1 47.577 41.818 0.000
5440 2 47.577 41.818 -1.500
5441 3 48.677 41.818 -1.633
5442 3 47.027 42.770 -1.633
5443 3 47.027 40.865 -1.633
5444 1 48.997 41.818 0.000
5445 1 49.707 43.048 0.000
5446 1 51.127 43.048 0.000
5447 1 51.837 41.818 0.000
5448 1 53.258 41.818 0.000
5449 1 53.968 43.048 0.000
5450 1 55.388 43.048 0.000
5451 2 55.388 43.048 1.500
5452 3 56.488 43.048 1.633
5453 3 54.838 44.000 1.633
5454 3 54.838 42.095 1.633
5455 1 56.098 41.818 0.000
5456 1 57.518 41.818 0.000
5457 3 57.518 41.818 1.100
5458 1 58.228 43.048 0.000
5459 1 59.648 43.048 0.000
5460 3 59.648 43.048 1.100
5461 1 60.358 41.818 0.000
5462 1 61.779 41.818 0.000
5463 1 62.489 43.048 0.000
5464 1 63.909 43.048 0.000
5465 1 64.619 41.818 0.000
5466 1 66.039 41.818 0.000
5467 1 66.749 43.048 0.000
5468 1 68.170 43.048 0.000
5469 1 68.880 41.818 0.000
5470 1 70.300 41.818 0.000
5471 1 71.010 43.048 0.000
5472 1 72.430 43.048 0.000
5473 1 73.140 41.818 0.000
5474 1 74.561 41.818 0.000
5475 3 74.561 41.818 1.100
5476 1 75.271 43.048 0.000
5477 1 76.691 43.048 0.000
5478 1 77.401 41.818 0.000
5479 2 77.401 41.818 1.500
5480 3 78.501 41.818 1.633
5481 3 76.851 42.770 1.633
5482 3 76.851 40.865 1.633
5483 1 78.821 41.818 0.000
5484 1 79.531 43.048 0.000
5485 1 80.951 43.048 0.000
5486 1 81.662 41.818 0.000
5487 1 83.082 41.818 0.000
5488 1 83.792 43.048 0.000
5489 2 83.792 43.048 -1.500
5490 3 84.892 43.048 -1.633
5491 3 83.242 44.000 -1.633
5492 3 83.242 42.095 -1.633
5493 1 85.212 43.048 0.000
5494 1 85.922 41.818 0.000
5495 1 87.342 41.818 0.000
5496 1 88.052 43.048 0.000
5497 1 89.473 43.048 0.000
5498 2 89.473 43.048 1.500
5499 3 90.573 43.048 1.633
5500 3 88.923 44.000 1.633
5501 3 88.923 42.095 1.633
5502 1 90.183 41.818 0.000
5503 1 91.603 41.818 0.000
5504 3 91.603 41.818 -1.100
5505 1 92.313 43.048 0.000
5506 1 93.733 43.048 0.000
5507 1 94.443 41.818 0.000
5508 1 95.864 41.818 0.000
5509 1 96.574 43.048 0.000
5510 1 97.994 43.048 0.000
5511 1 98.704 41.818 0.000
5512 1 100.124 41.818 0.000
5513 3 100.124 41.818 1.100
5514 1 100.834 43.048 0.000
5515 1 102.254 43.048 0.000
5516 1 102.965 41.818 0.000
5517 1 104.385 41.818 0.000
5518 1 105.095 43.048 0.000
5519 1 106.515 43.048 0.000
5520 1 107.225 41.818 0.000
5521 1 108.645 41.818 0.000
5522 1 109.355 43.048 0.000
5523 1 110.776 43.048 0.000
5524 1 111.486 41.818 0.000
5525 1 112.906 41.818 0.000
5526 1 113.616 43.048 0.000
5527 1 115.036 43.048 0.000
5528 1 115.746 41.818 0.000
5529 1 117.167 41.818 0.000
5530 1 117.877 43.048 0.000
5531 1 119.297 43.048 0.000
5532 1 120.007 41.818 0.000
5533 3 120.007 41.818 -1.100
5534 1 121.427 41.818 0.000
5535 1 122.137 43.048 0.000
5536 3 122.137 43.048 1.100
5537 1 123.557 43.048 0.000
5538 1 124.267 41.818 0.000
5539 2 124.267 41.818 1.500
5540 3 125.367 41.818 1.633
5541 3 123.718 42.770 1.633
5542 3 123.718 40.865 1.633
5543 1 125.688 41.818 0.000
5544 1 126.398 43.048 0.000
5545 3 126.398 43.048 -1.100
5546 1 127.818 43.048 0.000
5547 3 127.818 43.048 1.100
5548 1 128.528 41.818 0.000
5549 1 129.948 41.818 0.000
5550 1 130.658 43.048 0.000
5551 2 130.658 43.048 1.500
5552 3 131.758 43.048 1.633
5553 3 130.108 44.000 1.633
5554 3 130.108 42.095 1.633
5555 1 132.079 43.048 0.000
5556 1 132.789 41.818 0.000
5557 1 134.209 41.818 0.000
5558 3 134.209 41.818 -1.100
5559 1 134.919 43.048 0.000
5560 1 136.339 43.048 0.000
5561 1 137.049 41.818 0.000
5562 1 138.470 41.818 0.000
5563 1 139.180 43.048 0.000
5564 1 140.600 43.048 0.000
5565 1 141.310 41.818 0.000
5566 1 142.730 41.818 0.000
5567 1 143.440 43.048 0.000
5568 1 144.860 43.048 0.000
5569 1 145.571 41.818 0.000
5570 1 146.991 41.818 0.000
5571 1 147.701 43.048 0.000
5572 1 149.121 43.048 0.000
5573 1 149.831 41.818 0.000
5574 1 151.251 41.818 0.000
5575 1 151.961 43.048 0.000
5576 1 153.382 43.048 0.000
5577 1 154.092 41.818 0.000
5578 1 155.512 41.818 0.000
5579 3 155.512 41.818 -1.100
5580 1 156.222 43.048 0.000
5581 1 157.642 43.048 0.000
5582 2 157.642 43.048 -1.500
5583 3 158.742 43.048 -1.633
5584 3 157.092 44.000 -1.633
5585 3 157.092 42.095 -1.633
5586 1 158.352 41.818 0.000
5587 1 159.773 41.818 0.000
5588 1 160.483 43.048 0.000
5589 1 161.903 43.048 0.000
5590 1 162.613 41.818 0.000
5591 1 164.033 41.818 0.000
5592 1 164.743 43.048 0.000
5593 3 164.743 43.048 1.100
5594 1 166.163 43.048 0.000
5595 1 166.874 41.818 0.000
5596 1 168.294 41.818 0.000
5597 1 169.004 43.048 0.000
5598 1 170.424 43.048 0.000
5599 1 171.134 41.818 0.000
5600 1 172.554 41.818 0.000
5601 1 173.264 43.048 0.000
5602 3 173.264 43.048 1.100
5603 1 174.685 43.048 0.000
5604 1 175.395 41.818 0.000
5605 1 176.815 41.818 0.000
5606 3 176.815 41.818 -1.100
5607 1 177.525 43.048 0.000
5608 1 178.945 43.048 0.000
5609 3 178.945 43.048 1.100
5610 1 179.655 41.818 0.000
5611 3 179.655 41.818 -1.100
5612 1 181.076 41.818 0.000
5613 3 181.076 41.818 1.100
5614 1 181.786 43.048 0.000
5615 1 183.206 43.048 0.000
5616 1 183.916 41.818 0.000
5617 1 185.336 41.818 0.000
5618 1 186.046 43.048 0.000
5619 1 187.466 43.048 0.000
5620 2 187.466 43.048 1.500
5621 3 188.566 43.048 1.633
5622 3 186.916 44.000 1.633
5623 3 186.916 42.095 1.633
5624 1 188.177 41.818 0.000
5625 1 189.597 41.818 0.000
5626 1 190.307 43.048 0.000
5627 1 191.727 43.048 0.000
5628 1 192.437 41.818 0.000
5629 1 193.857 41.818 0.000
5630 1 194.567 43.048 0.000
5631 1 195.988 43.048 0.000
5632 1 196.698 41.818 0.000
5633 1 198.118 41.818 0.000
5634 1 198.828 43.048 0.000
5635 1 200.248 43.048 0.000
5636 3 200.248 43.048 1.100
5637 1 200.958 41.818 0.000
5638 1 202.379 41.818 0.000
5639 1 203.089 43.048 0.000
5640 3 203.089 43.048 1.100
5641 1 204.509 43.048 0.000
5642 1 205.219 41.818 0.000
5643 1 206.639 41.818 0.000
5644 1 207.349 43.048 0.000
5645 1 208.769 43.048 0.000
5646 1 209.480 41.818 0.000
5647 1 210.900 41.818 0.000
5648 1 211.610 43.048 0.000
5649 3 211.610 43.048 1.100
5650 1 213.030 43.048 0.000
5651 1 213.740 41.818 0.000
5652 1 215.160 41.818 0.000
5653 2 215.160 41.818 1.500
5654 3 216.260 41.818 1.633
5655 3 214.610 42.770 1.633
5656 3 214.610 40.865 1.633
5657 1 215.870 43.048 0.000
5658 1 217.291 43.048 0.000
5659 1 218.001 41.818 0.000
5660 1 219.421 41.818 0.000
5661 1 220.131 43.048 0.000
5662 1 221.551 43.048 0.000
5663 2 221.551 43.048 -1.500
5664 3 222.651 43.048 -1.633
5665 3 221.001 44.000 -1.633
5666 3 221.001 42.095 -1.633
5667 1 222.261 41.818 0.000
5668 1 223.681 41.818 0.000
5669 1 224.392 43.048 0.000
5670 1 225.812 43.048 0.000
5671 1 226.522 41.818 0.000
5672 1 227.942 41.818 0.000
5673 2 227.942 41.818 -1.500
5674 3 229.042 41.818 -1.633
5675 3 227.392 42.770 -1.633
5676 3 227.392 40.865 -1.633
5677 1 228.652 43.048 0.000
5678 1 230.072 43.048 0.000
5679 1 230.783 41.818 0.000
5680 1 232.203 41.818 0.000
5681 1 232.913 43.048 0.000
5682 1 234.333 43.048 0.000
5683 1 235.043 41.818 0.000
5684 1 236.463 41.818 0.000
5685 1 237.173 43.048 0.000
5686 1 238.594 43.048 0.000
5687 1 239.304 41.818 0.000
5688 1 240.724 41.818 0.000
5689 1 241.434 43.048 0.000
5690 1 242.854 43.048 0.000
5691 1 243.564 41.818 0.000
5692 2 243.564 41.818 -1.500
5693 3 244.664 41.818 -1.633
5694 3 243.014 42.770 -1.633
5695 3 243.014 40.865 -1.633
5696 1 244.985 41.818 0.000
5697 1 245.695 43.048 0.000
5698 1 247.115 43.048 0.000
5699 3 247.115 43.048 1.100
5700 1 247.825 41.818 0.000
5701 2 247.825 41.818 -1.500
5702 3 248.925 41.818 -1.633
5703 3 247.275 42.770 -1.633
5704 3 247.275 40.865 -1.633
5705 1 249.245 41.818 0.000
5706 1 249.955 43.048 0.000
5707 1 0.000 45.507 0.000
5708 1 0.710 44.277 0.000
5709 1 2.130 44.277 0.000
5710 1 2.840 45.507 0.000
5711 1 4.261 45.507 0.000
5712 1 4.971 44.277 0.000
5713 1 6.391 44.277 0.000
5714 1 7.101 45.507 0.000
5715 1 8.521 45.507 0.000
5716 1 9.231 44.277 0.000
5717 1 10.652 44.277 0.000
5718 1 11.362 45.507 0.000
5719 1 12.782 45.507 0.000
5720 3 12.782 45.507 -1.100
5721 1 13.492 44.277 0.000
5722 1 14.912 44.277 0.000
5723 1 15.622 45.507 0.000
5724 1 17.042 45.507 0.000
5725 1 17.753 44.277 0.000
5726 1 19.173 44.277 0.000
5727 3 19.173 44.277 1.100
5728 1 19.883 45.507 0.000
5729 1 21.303 45.507 0.000
5730 2 21.303 45.507 -1.500
5731 3 22.403 45.507 -1.633
5732 3 20.753 46.460 -1.633
5733 3 20.753 44.555 -1.633
5734 1 22.013 44.277 0.000
5735 1 23.433 44.277 0.000
5736 3 23.433 44.277 1.100
5737 1 24.143 45.507 0.000
5738 1 25.564 45.507 0.000
5739 2 25.564 45.507 -1.500
5740 3 26.664 45.507 -1.633
5741 3 25.014 46.460 -1.633
5742 3 25.014 44.555 -1.633
5743 1 26.274 44.277 0.000
5744 1 27.694 44.277 0.000
5745 1 28.404 45.507 0.000
5746 3 28.404 45.507 -1.100
5747 1 29.824 45.507 0.000
5748 1 30.534 44.277 0.000
5749 1 31.954 44.277 0.000
5750 1 32.665 45.507 0.000
5751 1 34.085 45.507 0.000
5752 1 34.795 44.277 0.000
5753 3 34.795 44.277 1.100
5754 1 36.215 44.277 0.000
5755 1 36.925 45.507 0.000
5756 3 36.925 45.507 1.100
5757 1 38.345 45.507 0.000
5758 1 39.055 44.277 0.000
5759 1 40.476 44.277 0.000
5760 1 41.186 45.507 0.000
5761 1 42.606 45.507 0.000
5762 1 43.316 44.277 0.000
5763 1 44.736 44.277 0.000
5764 1 45.446 45.507 0.000
5765 1 46.867 45.507 0.000
5766 3 46.867 45.507 -1.100
5767 1 47.577 44.277 0.000
5768 1 48.997 44.277 0.000
5769 1 49.707 45.507 0.000
5770 1 51.127 45.507 0.000
5771 2 51.127 45.507 -1.500
5772 3 52.227 45.507 -1.633
5773 3 50.577 46.460 -1.633
5774 3 50.577 44.555 -1.633
5775 1 51.837 44.277 0.000
5776 1 53.258 44.277 0.000
5777 3 53.258 44.277 -1.100
5778 1 53.968 45.507 0.000
5779 1 55.388 45.507 0.000
5780 1 56.098 44.277 0.000
5781 1 57.518 44.277 0.000
5782 1 58.228 45.507 0.000
5783 1 59.648 45.507 0.000
5784 1 60.358 44.277 0.000
5785 1 61.779 44.277 0.000
5786 1 62.489 45.507 0.000
5787 2 62.489 45.507 -1.500
5788 3 63.589 45.507 -1.633
5789 3 61.939 46.460 -1.633
5790 3 61.939 44.555 -1.633
5791 1 63.909 45.507 0.000
5792 1 64.619 44.277 0.000
5793 1 66.039 44.277 0.000
5794 1 66.749 45.507 0.000
5795 1 68.170 45.507 0.000
5796 3 68.170 45.507 1.100
5797 1 68.880 44.277 0.000
5798 1 70.300 44.277 0.000
5799 1 71.010 45.507 0.000
5800 1 72.430 45.507 0.000
5801 1 73.140 44.277 0.000
5802 1 74.561 44.277 0.000
5803 1 75.271 45.507 0.000
5804 1 76.691 45.507 0.000
5805 1 77.401 44.277 0.000
5806 1 78.821 44.277 0.000
5807 1 79.531 45.507 0.000
5808 1 80.951 45.507 0.000
5809 1 81.662 44.277 0.000
5810 1 83.082 44.277 0.000
5811 1 83.792 45.507 0.000
5812 1 85.212 45.507 0.000
5813 1 85.922 44.277 0.000
5814 1 87.342 44.277 0.000
5815 1 88.052 45.507 0.000
5816 1 89.473 45.507 0.000
5817 1 90.183 44.277 0.000
5818 1 91.603 44.277 0.000
5819 1 92.313 45.507 0.000
5820 1 93.733 45.507 0.000
5821 1 94.443 44.277 0.000
5822 1 95.864 44.277 0.000
5823 3 95.864 44.277 1.100
5824 1 96.574 45.507 0.000
5825 1 97.994 45.507 0.000
5826 1 98.704 44.277 0.000
5827 1 100.124 44.277 0.000
5828 1 100.834 45.507 0.000
5829 1 102.254 45.507 0.000
5830 1 102.965 44.277 0.000
5831 1 104.385 44.277 0.000
5832 1 105.095 45.507 0.000
5833 1 106.515 45.507 0.000
5834 1 107.225 44.277 0.000
5835 1 108.645 44.277 0.000
5836 1 109.355 45.507 0.000
5837 1 110.776 45.507 0.000
5838 1 111.486 44.277 0.000
5839 1 112.906 44.277 0.000
5840 1 113.616 45.507 0.000
5841 1 115.036 45.507 0.000
5842 1 115.746 44.277 0.000
5843 1 117.167 44.277 0.000
5844 1 117.877 45.507 0.000
5845 1 119.297 45.507 0.000
5846 1 120.007 44.277 0.000
5847 3 120.007 44.277 1.100
5848 1 121.427 44.277 0.000
5849 1 122.137 45.507 0.000
5850 3 122.137 45.507 -1.100
5851 1 123.557 45.507 0.000
5852 1 124.267 44.277 0.000
5853 1 125.688 44.277 0.000
5854 1 126.398 45.507 0.000
5855 1 127.818 45.507 0.000
5856 1 128.528 44.277 0.000
5857 1 129.948 44.277 0.000
5858 1 130.658 45.507 0.000
5859 1 132.079 45.507 0.000
5860 1 132.789 44.277 0.000
5861 1 134.209 44.277 0.000
5862 2 134.209 44.277 -1.500
5863 3 135.309 44.277 -1.633
5864 3 133.659 45.230 -1.633
5865 3 133.659 43.325 -1.633
5866 1 134.919 45.507 0.000
5867 1 136.339 45.507 0.000
5868 1 137.049 44.277 0.000
5869 1 138.470 44.277 0.000
5870 1 139.180 45.507 0.000
5871 1 140.600 45.507 0.000
5872 1 141.310 44.277 0.000
5873 1 142.730 44.277 0.000
5874 1 143.440 45.507 0.000
5875 1 144.860 45.507 0.000
5876 1 145.571 44.277 0.000
5877 2 145.571 44.277 1.500
5878 3 146.671 44.277 1.633
5879 3 145.020 45.230 1.633
5880 3 145.020 43.325 1.633
5881 1 146.991 44.277 0.000
5882 1 147.701 45.507 0.000
5883 1 149.121 45.507 0.000
5884 1 149.831 44.277 0.000
5885 1 151.251 44.277 0.000
5886 1 151.961 45.507 0.000
5887 3 151.961 45.507 1.100
5888 1 153.382 45.507 0.000
5889 1 154.092 44.277 0.000
5890 1 155.512 44.277 0.000
5891 1 156.222 45.507 0.000
5892 3 156.222 45.507 -1.100
5893 1 157.642 45.507 0.000
5894 1 158.352 44.277 0.000
5895 1 159.773 44.277 0.000
5896 1 160.483 45.507 0.000
5897 3 160.483 45.507 -1.100
5898 1 161.903 45.507 0.000
5899 1 162.613 44.277 0.000
5900 2 162.613 44.277 -1.500
5901 3 163.713 44.277 -1.633
5902 3 162.063 45.230 -1.633
5903 3 162.063 43.325 -1.633
5904 1 164.033 44.277 0.000
5905 1 164.743 45.507 0.000
5906 1 166.163 45.507 0.000
5907 1 166.874 44.277 0.000
5908 1 168.294 44.277 0.000
5909 1 169.004 45.507 0.000
5910 1 170.424 45.507 0.000
5911 1 171.134 44.277 0.000
5912 1 172.554 44.277 0.000
5913 1 173.264 45.507 0.000
5914 1 174.685 45.507 0.000
5915 1 175.395 44.277 0.000
5916 1 176.815 44.277 0.000
5917 2 176.815 44.277 -1.500
5918 3 177.915 44.277 -1.633
5919 3 176.265 45.230 -1.633
5920 3 176.265 43.325 -1.633
5921 1 177.525 45.507 0.000
5922 1 178.945 45.507 0.000
5923 1 179.655 44.277 0.000
5924 1 181.076 44.277 0.000
5925 1 181.786 45.507 0.000
5926 1 183.206 45.507 0.000
5927 1 183.916 44.277 0.000
5928 1 185.336 44.277 0.000
5929 1 186.046 45.507 0.000
5930 1 187.466 45.507 0.000
5931 1 188.177 44.277 0.000
5932 3 188.177 44.277 -1.100
5933 1 189.597 44.277 0.000
5934 1 190.307 45.507 0.000
5935 1 191.727 45.507 0.000
5936 3 191.727 45.507 1.100
5937 1 192.437 44.277 0.000
5938 2 192.437 44.277 -1.500
5939 3 193.537 44.277 -1.633
5940 3 191.887 45.230 -1.633
5941 3 191.887 43.325 -1.633
5942 1 193.857 44.277 0.000
5943 1 194.567 45.507 0.000
5944 1 195.988 45.507 0.000
5945 1 196.698 44.277 0.000
5946 1 198.118 44.277 0.000
5947 1 198.828 45.507 0.000
5948 1 200.248 45.507 0.000
5949 1 200.958 44.277 0.000
5950 2 200.958 44.277 -1.500
5951 3 202.058 44.277 -1.633
5952 3 200.408 45.230 -1.633
5953 3 200.408 43.325 -1.633
5954 1 202.379 44.277 0.000
5955 1 203.089 45.507 0.000
5956 1 204.509 45.507 0.000
5957 1 205.219 44.277 0.000
5958 1 206.639 44.277 0.000
5959 1 207.349 45.507 0.000
5960 1 208.769 45.507 0.000
5961 1 209.480 44.277 0.000
5962 1 210.900 44.277 0.000
5963 1 211.610 45.507 0.000
5964 1 213.030 45.507 0.000
5965 1 213.740 44.277 0.000
5966 1 215.160 44.277 0.000
5967 1 215.870 45.507 0.000
5968 1 217.291 45.507 0.000
5969 1 218.001 44.277 0.000
5970 1 219.421 44.277 0.000
5971 1 220.131 45.507 0.000
5972 1 221.551 45.507 0.000
5973 1 222.261 44.277 0.000
5974 1 223.681 44.277 0.000
5975 1 224.392 45.507 0.000
5976 1 225.812 45.507 0.000
5977 1 226.522 44.277 0.000
5978 1 227.942 44.277 0.000
5979 1 228.652 45.507 0.000
5980 1 230.072 45.507 0.000
5981 1 230.783 44.277 0.000
5982 1 232.203 44.277 0.000
5983 2 232.203 44.277 1.500
5984 3 233.303 44.277 1.633
5985 3 231.653 45.230 1.633
5986 3 231.653 43.325 1.633
5987 1 232.913 45.507 0.000
5988 1 234.333 45.507 0.000
5989 1 235.043 44.277 0.000
5990 1 236.463 44.277 0.000
5991 1 237.173 45.507 0.000
5992 1 238.594 45.507 0.000
5993 1 239.304 44.277 0.000
5994 1 240.724 44.277 0.000
5995 1 241.434 45.507 0.000
5996 1 242.854 45.507 0.000
5997 1 243.564 44.277 0.000
5998 3 243.564 44.277 1.100
5999 1 244.985 44.277 0.000
6000 3 244.985 44.277 -1.100
6001 1 245.695 45.507 0.000
6002 1 247.115 45.507 0.000
6003 1 247.825 44.277 0.000
6004 1 249.245 44.277 0.000
6005 1 249.955 45.507 0.000
6006 1 0.000 47.967 0.000
6007 1 0.710 46.737 0.000
6008 1 2.130 46.737 0.000
6009 1 2.840 47.967 0.000
6010 1 4.261 47.967 0.000
6011 1 4.971 46.737 0.000
6012 2 4.971 46.737 1.500
6013 3 6.071 46.737 1.633
6014 3 4.421 47.690 1.633
6015 3 4.421 45.785 1.633
6016 1 6.391 46.737 0.000
6017 1 7.101 47.967 0.000
6018 1 8.521 47.967 0.000
6019 1 9.231 46.737 0.000
6020 1 10.652 46.737 0.000
6021 2 10.652 46.737 -1.500
6022 3 11.752 46.737 -1.633
6023 3 10.102 47.690 -1.633
6024 3 10.101 45.785 -1.633
6025 1 11.362 47.967 0.000
6026 1 12.782 47.967 0.000
6027 1 13.492 46.737 0.000
6028 1 14.912 46.737 0.000
6029 1 15.622 47.967 0.000
6030 1 17.042 47.967 0.000
6031 1 17.753 46.737 0.000
6032 1 19.173 46.737 0.000
6033 1 19.883 47.967 0.000
6034 1 21.303 47.967 0.000
6035 1 22.013 46.737 0.000
6036 1 23.433 46.737 0.000
6037 1 24.143 47.967 0.000
6038 1 25.564 47.967 0.000
6039 3 25.564 47.967 -1.100
6040 1 26.274 46.737 0.000
6041 1 27.694 46.737 0.000
6042 1 28.404 47.967 0.000
6043 1 29.824 47.967 0.000
6044 1 30.534 46.737 0.000
6045 1 31.954 46.737 0.000
6046 1 32.665 47.967 0.000
6047 1 34.085 47.967 0.000
6048 1 34.795 46.737 0.000
6049 3 34.795 46.737 -1.100
6050 1 36.215 46.737 0.000
6051 1 36.925 47.967 0.000
6052 1 38.345 47.967 0.000
6053 1 39.055 46.737 0.000
6054 3 39.055 46.737 1.100
6055 1 40.476 46.737 0.000
6056 3 40.476 46.737 1.100
6057 1 41.186 47.967 0.000
6058 1 42.606 47.967 0.000
6059 1 43.316 46.737 0.000
6060 1 44.736 46.737 0.000
6061 1 45.446 47.967 0.000
6062 1 46.867 47.967 0.000
6063 1 47.577 46.737 0.000
6064 1 48.997 46.737 0.000
6065 1 49.707 47.967 0.000
6066 1 51.127 47.967 0.000
6067 1 51.837 46.737 0.000
6068 1 53.258 46.737 0.000
6069 1 53.968 47.967 0.000
6070 1 55.388 47.967 0.000
6071 1 56.098 46.737 0.000
6072 1 57.518 46.737 0.000
6073 1 58.228 47.967 0.000
6074 1 59.648 47.967 0.000
6075 1 60.358 46.737 0.000
6076 1 61.779 46.737 0.000
6077 1 62.489 47.967 0.000
6078 1 63.909 47.967 0.000
6079 1 64.619 46.737 0.000
6080 1 66.039 46.737 0.000
6081 1 66.749 47.967 0.000
6082 1 68.170 47.967 0.000
6083 2 68.170 47.967 -1.500
6084 3 69.270 47.967 -1.633
6085 3 67.620 48.920 -1.633
6086 3 67.620 47.015 -1.633
6087 1 68.880 46.737 0.000
6088 1 70.300 46.737 0.000
6089 1 71.010 47.967 0.000
6090 1 72.430 47.967 0.000
6091 1 73.140 46.737 0.000
6092 1 74.561 46.737 0.000
6093 1 75.271 47.967 0.000
6094 1 76.691 47.967 0.000
6095 1 77.401 46.737 0.000
6096 1 78.821 46.737 0.000
6097 3 78.821 46.737 -1.100
6098 1 79.531 47.967 0.000
6099 1 80.951 47.967 0.000
6100 1 81.662 46.737 0.000
6101 1 83.082 46.737 0.000
6102 1 83.792 47.967 0.000
6103 1 85.212 47.967 0.000
6104 1 85.922 46.737 0.000
6105 1 87.342 46.737 0.000
6106 1 88.052 47.967 0.000
6107 3 88.052 47.967 -1.100
6108 1 89.473 47.967 0.000
6109 1 90.183 46.737 0.000
6110 1 91.603 46.737 0.000
6111 1 92.313 47.967 0.000
6112 1 93.733 47.967 0.000
6113 1 94.443 46.737 0.000
6114 1 95.864 46.737 0.000
6115 3 95.864 46.737 -1.100
6116 1 96.574 47.967 0.000
6117 1 97.994 47.967 0.000
6118 1 98.704 46.737 0.000
6119 1 100.124 46.737 0.000
6120 1 100.834 47.967 0.000
6121 1 102.254 47.967 0.000
6122 1 102.965 46.737 0.000
6123 1 104.385 46.737 0.000
6124 1 105.095 47.967 0.000
6125 1 106.515 47.967 0.000
6126 3 106.515 47.967 1.100
6127 1 107.225 46.737 0.000
6128 1 108.645 46.737 0.000
6129 1 109.355 47.967 0.000
6130 1 110.776 47.967 0.000
6131 3 110.776 47.967 1.100
6132 1 111.486 46.737 0.000
6133 1 112.906 46.737 0.000
6134 1 113.616 47.967 0.000
6135 1 115.036 47.967 0.000
6136 1 115.746 46.737 0.000
6137 2 115.746 46.737 1.500
6138 3 116.846 46.737 1.633
6139 3 115.196 47.690 1.633
6140 3 115.196 45.785 1.633
6141 1 117.167 46.737 0.000
6142 1 117.877 47.967 0.000
6143 1 119.297 47.967 0.000
6144 1 120.007 46.737 0.000
6145 1 121.427 46.737 0.000
6146 1 122.137 47.967 0.000
6147 2 122.137 47.967 1.500
6148 3 123.237 47.967 1.633
6149 3 121.587 48.920 1.633
6150 3 121.587 47.015 1.633
6151 1 123.557 47.967 0.000
6152 1 124.267 46.737 0.000
6153 3 124.267 46.737 -1.100
6154 1 125.688 46.737 0.000
6155 1 126.398 47.967 0.000
6156 1 127.818 47.967 0.000
6157 2 127.818 47.967 -1.500
6158 3 128.918 47.967 -1.633
6159 3 127.268 48.920 -1.633
6160 3 127.268 47.015 -1.633
6161 1 128.528 46.737 0.000
6162 1 129.948 46.737 0.000
6163 1 130.658 47.967 0.000
6164 3 130.658 47.967 1.100
6165 1 132.079 47.967 0.000
6166 1 132.789 46.737 0.000
6167 2 132.789 46.737 1.500
6168 3 133.889 46.737 1.633
6169 3 132.239 47.690 1.633
6170 3 132.239 45.785 1.633
6171 1 134.209 46.737 0.000
6172 1 134.919 47.967 0.000
6173 1 136.339 47.967 0.000
6174 2 136.339 47.967 1.500
6175 3 137.439 47.967 1.633
6176 3 135.789 48.920 1.633
6177 3 135.789 47.015 1.633
6178 1 137.049 46.737 0.000
6179 1 138.470 46.737 0.000
6180 1 139.180 47.967 0.000
6181 1 140.600 47.967 0.000
6182 1 141.310 46.737 0.000
6183 1 142.730 46.737 0.000
6184 1 143.440 47.967 0.000
6185 1 144.860 47.967 0.000
6186 2 144.860 47.967 1.500
6187 3 145.960 47.967 1.633
6188 3 144.310 48.920 1.633
6189 3 144.310 47.015 1.633
6190 1 145.571 46.737 0.000
6191 1 146.991 46.737 0.000
6192 1 147.701 47.967 0.000
6193 1 149.121 47.967 0.000
6194 3 149.121 47.967 -1.100
6195 1 149.831 46.737 0.000
6196 1 151.251 46.737 0.000
6197 2 151.251 46.737 -1.500
6198 3 152.351 46.737 -1.633
6199 3 150.701 47.690 -1.633
6200 3 150.701 45.785 -1.633
6201 1 151.961 47.967 0.000
6202 1 153.382 47.967 0.000
6203 1 154.092 46.737 0.000
6204 1 155.512 46.737 0.000
6205 1 156.222 47.967 0.000
6206 1 157.642 47.967 0.000
6207 1 158.352 46.737 0.000
6208 3 158.352 46.737 -1.100
6209 1 159.773 46.737 0.000
6210 1 160.483 47.967 0.000
6211 1 161.903 47.967 0.000
6212 1 162.613 46.737 0.000
6213 1 164.033 46.737 0.000
6214 3 164.033 46.737 -1.100
6215 1 164.743 47.967 0.000
6216 1 166.163 47.967 0.000
6217 3 166.163 47.967 1.100
6218 1 166.874 46.737 0.000
6219 1 168.294 46.737 0.000
6220 1 169.004 47.967 0.000
6221 1 170.424 47.967 0.000
6222 1 171.134 46.737 0.000
6223 2 171.134 46.737 -1.500
6224 3 172.234 46.737 -1.633
6225 3 170.584 47.690 -1.633
6226 3 170.584 45.785 -1.633
6227 1 172.554 46.737 0.000
6228 1 173.264 47.967 0.000
6229 1 174.685 47.967 0.000
6230 1 175.395 46.737 0.000
6231 1 176.815 46.737 0.000
6232 1 177.525 47.967 0.000
6233 1 178.945 47.967 0.000
6234 1 179.655 46.737 0.000
6235 1 181.076 46.737 0.000
6236 1 181.786 47.967 0.000
6237 1 183.206 47.967 0.000
6238 1 183.916 46.737 0.000
6239 1 185.336 46.737 0.000
6240 1 186.046 47.967 0.000
6241 3 186.046 47.967 -1.100
6242 1 187.466 47.967 0.000
6243 1 188.177 46.737 0.000
6244 1 189.597 46.737 0.000
6245 1 190.307 47.967 0.000
6246 1 191.727 47.967 0.000
6247 1 192.437 46.737 0.000
6248 1 193.857 46.737 0.000
6249 1 194.567 47.967 0.000
6250 1 195.988 47.967 0.000
6251 1 196.698 46.737 0.000
6252 1 198.118 46.737 0.000
6253 1 198.828 47.967 0.000
6254 2 198.828 47.967 -1.500
6255 3 199.928 47.967 -1.633
6256 3 198.278 48.920 -1.633
6257 3 198.278 47.015 -1.633
6258 1 200.248 47.967 0.000
6259 1 200.958 46.737 0.000
6260 1 202.379 46.737 0.000
6261 1 203.089 47.967 0.000
6262 1 204.509 47.967 0.000
6263 1 205.219 46.737 0.000
6264 3 205.219 46.737 1.100
6265 1 206.639 46.737 0.000
6266 1 207.349 47.967 0.000
6267 1 208.769 47.967 0.000
6268 1 209.480 46.737 0.000
6269 2 209.480 46.737 -1.500
6270 3 210.580 46.737 -1.633
6271 3 208.930 47.690 -1.633
6272 3 208.930 45.785 -1.633
6273 1 210.900 46.737 0.000
6274 1 211.610 47.967 0.000
6275 1 213.030 47.967 0.000
6276 3 213.030 47.967 1.100
6277 1 213.740 46.737 0.000
6278 1 215.160 46.737 0.000
6279 3 215.160 46.737 1.100
6280 1 215.870 47.967 0.000
6281 1 217.291 47.967 0.000
6282 1 218.001 46.737 0.000
6283 1 219.421 46.737 0.000
6284 3 219.421 46.737 -1.100
6285 1 220.131 47.967 0.000
6286 2 220.131 47.967 1.500
6287 3 221.231 47.967 1.633
6288 3 219.581 48.920 1.633
6289 3 219.581 47.015 1.633
6290 1 221.551 47.967 0.000
6291 1 222.261 46.737 0.000
6292 1 223.681 46.737 0.000
6293 1 224.392 47.967 0.000
6294 1 225.812 47.967 0.000
6295 1 226.522 46.737 0.000
6296 1 227.942 46.737 0.000
6297 1 228.652 47.967 0.000
6298 1 230.072 47.967 0.000
6299 1 230.783 46.737 0.000
6300 1 232.203 46.737 0.000
6301 1 232.913 47.967 0.000
6302 3 232.913 47.967 1.100
6303 1 234.333 47.967 0.000
6304 1 235.043 46.737 0.000
6305 1 236.463 46.737 0.000
6306 1 237.173 47.967 0.000
6307 1 238.594 47.967 0.000
6308 1 239.304 46.737 0.000
6309 3 239.304 46.737 1.100
6310 1 240.724 46.737 0.000
6311 1 241.434 47.967 0.000
6312 1 242.854 47.967 0.000
6313 1 243.564 46.737 0.000
6314 1 244.985 46.737 0.000
6315 1 245.695 47.967 0.000
6316 1 247.115 47.967 0.000
6317 1 247.825 46.737 0.000
6318 1 249.245 46.737 0.000
6319 1 249.955 47.967 0.000
6320 1 0.000 50.427 0.000
6321 1 0.710 49.197 0.000
6322 1 2.130 49.197 0.000
6323 1 2.840 50.427 0.000
6324 2 2.840 50.427 -1.500
6325 3 3.940 50.427 -1.633
6326 3 2.290 51.380 -1.633
6327 3 2.290 49.474 -1.633
6328 1 4.261 50.427 0.000
6329 1 4.971 49.197 0.000
6330 1 6.391 49.197 0.000
6331 1 7.101 50.427 0.000
6332 1 8.521 50.427 0.000
6333 1 9.231 49.197 0.000
6334 1 10.652 49.197 0.000
6335 1 11.362 50.427 0.000
6336 1 12.782 50.427 0.000
6337 1 13.492 49.197 0.000
6338 1 14.912 49.197 0.000
6339 1 15.622 50.427 0.000
6340 1 17.042 50.427 0.000
6341 1 17.753 49.197 0.000
6342 2 17.753 49.197 1.500
6343 3 18.853 49.197 1.633
6344 3 17.203 50.150 1.633
6345 3 17.203 48.245 1.633
6346 1 19.173 49.197 0.000
6347 1 19.883 50.427 0.000
6348 1 21.303 50.427 0.000
6349 1 22.013 49.197 0.000
6350 1 23.433 49.197 0.000
6351 1 24.143 50.427 0.000
6352 1 25.564 50.427 0.000
6353 1 26.274 49.197 0.000
6354 1 27.694 49.197 0.000
6355 1 28.404 50.427 0.000
6356 1 29.824 50.427 0.000
6357 2 29.824 50.427 1.500
6358 3 30.924 50.427 1.633
6359 3 29.274 51.380 1.633
6360 3 29.274 49.474 1.633
6361 1 30.534 49.197 0.000
6362 1 31.954 49.197 0.000
6363 1 32.665 50.427 0.000
6364 1 34.085 50.427 0.000
6365 1 34.795 49.197 0.000
6366 1 36.215 49.197 0.000
6367 1 36.925 50.427 0.000
6368 1 38.345 50.427 0.000
6369 1 39.055 49.197 0.000
6370 1 40.476 49.197 0.000
6371 1 41.186 50.427 0.000
6372 1 42.606 50.427 0.000
6373 1 43.316 49.197 0.000
6374 1 44.736 49.197 0.000
6375 3 44.736 49.197 -1.100
6376 1 45.446 50.427 0.000
6377 1 46.867 50.427 0.000
6378 1 47.577 49.197 0.000
6379 1 48.997 49.197 0.000
6380 1 49.707 50.427 0.000
6381 1 51.127 50.427 0.000
6382 1 51.837 49.197 0.000
6383 1 53.258 49.197 0.000
6384 1 53.968 50.427 0.000
6385 1 55.388 50.427 0.000
6386 1 56.098 49.197 0.000
6387 1 57.518 49.197 0.000
6388 1 58.228 50.427 0.000
6389 1 59.648 50.427 0.000
6390 1 60.358 49.197 0.000
6391 1 61.779 49.197 0.000
6392 1 62.489 50.427 0.000
6393 1 63.909 50.427 0.000
6394 2 63.909 50.427 1.500
6395 3 65.009 50.427 1.633
6396 3 63.359 51.380 1.633
6397 3 63.359 49.474 1.633
6398 1 64.619 49.197 0.000
6399 1 66.039 49.197 0.000
6400 1 66.749 50.427 0.000
6401 1 68.170 50.427 0.000
6402 1 68.880 49.197 0.000
6403 1 70.300 49.197 0.000
6404 1 71.010 50.427 0.000
6405 1 72.430 50.427 0.000
6406 1 73.140 49.197 0.000
6407 3 73.140 49.197 1.100
6408 1 74.561 49.197 0.000
6409 1 75.271 50.427 0.000
6410 1 76.691 50.427 0.000
6411 1 77.401 49.197 0.000
6412 1 78.821 49.197 0.000
6413 1 79.531 50.427 0.000
6414 1 80.951 50.427 0.000
6415 1 81.662 49.197 0.000
6416 1 83.082 49.197 0.000
6417 1 83.792 50.427 0.000
6418 3 83.792 50.427 1.100
6419 1 85.212 50.427 0.000
6420 1 85.922 49.197 0.000
6421 2 85.922 49.197 -1.500
6422 3 87.022 49.197 -1.633
6423 3 85.372 50.150 -1.633
6424 3 85.372 48.245 -1.633
6425 1 87.342 49.197 0.000
6426 1 88.052 50.427 0.000
6427 1 89.473 50.427 0.000
6428 3 89.473 50.427 -1.100
6429 1 90.183 49.197 0.000
6430 1 91.603 49.197 0.000
6431 2 91.603 49.197 -1.500
6432 3 92.703 49.197 -1.633
6433 3 91.053 50.150 -1.633
6434 3 91.053 48.245 -1.633
6435 1 92.313 50.427 0.000
6436 1 93.733 50.427 0.000
6437 1 94.443 49.197 0.000
6438 1 95.864 49.197 0.000
6439 1 96.574 50.427 0.000
6440 3 96.574 50.427 -1.100
6441 1 97.994 50.427 0.000
6442 1 98.704 49.197 0.000
6443 1 100.124 49.197 0.000
6444 1 100.834 50.427 0.000
6445 1 102.254 50.427 0.000
6446 1 102.965 49.197 0.000
6447 1 104.385 49.197 0.000
6448 2 104.385 49.197 1.500
6449 3 105.485 49.197 1.633
6450 3 103.835 50.150 1.633
6451 3 103.835 48.245 1.633
6452 1 105.095 50.427 0.000
6453 1 106.515 50.427 0.000
6454 3 106.515 50.427 1.100
6455 1 107.225 49.197 0.000
6456 1 108.645 49.197 0.000
6457 1 109.355 50.427 0.000
6458 3 109.355 50.427 1.100
6459 1 110.776 50.427 0.000
6460 1 111.486 49.197 0.000
6461 1 112.906 49.197 0.000
6462 1 113.616 50.427 0.000
6463 1 115.036 50.427 0.000
6464 1 115.746 49.197 0.000
6465 1 117.167 49.197 0.000
6466 1 117.877 50.427 0.000
6467 1 119.297 50.427 0.000
6468 1 120.007 49.197 0.000
6469 3 120.007 49.197 -1.100
6470 1 121.427 49.197 0.000
6471 1 122.137 50.427 0.000
6472 3 122.137 50.427 -1.100
6473 1 123.557 50.427 0.000
6474 1 124.267 49.197 0.000
6475 1 125.688 49.197 0.000
6476 1 126.398 50.427 0.000
6477 1 127.818 50.427 0.000
6478 1 128.528 49.197 0.000
6479 1 129.948 49.197 0.000
6480 1 130.658 50.427 0.000
6481 1 132.079 50.427 0.000
6482 1 132.789 49.197 0.000
6483 1 134.209 49.197 0.000
6484 1 134.919 50.427 0.000
6485 1 136.339 50.427 0.000
6486 1 137.049 49.197 0.000
6487 1 138.470 49.197 0.000
6488 3 138.470 49.197 1.100
6489 1 139.180 50.427 0.000
6490 3 139.180 50.427 -1.100
6491 1 140.600 50.427 0.000
6492 1 141.310 49.197 0.000
6493 2 141.310 49.197 -1.500
6494 3 142.410 49.197 -1.633
6495 3 140.760 50.150 -1.633
6496 3 140.760 48.245 -1.633
6497 1 142.730 49.197 0.000
6498 1 143.440 50.427 0.000
6499 1 144.860 50.427 0.000
6500 1 145.571 49.197 0.000
6501 1 146.991 49.197 0.000
6502 2 146.991 49.197 -1.500
6503 3 148.091 49.197 -1.633
6504 3 146.441 50.150 -1.633
6505 3 146.441 48.245 -1.633
6506 1 147.701 50.427 0.000
6507 1 149.121 50.427 0.000
6508 1 149.831 49.197 0.000
6509 1 151.251 49.197 0.000
6510 1 151.961 50.427 0.000
6511 1 153.382 50.427 0.000
6512 1 154.092 49.197 0.000
6513 1 155.512 49.197 0.000
6514 1 156.222 50.427 0.000
6515 1 157.642 50.427 0.000
6516 1 158.352 49.197 0.000
6517 1 159.773 49.197 0.000
6518 1 160.483 50.427 0.000
6519 1 161.903 50.427 0.000
6520 1 162.613 49.197 0.000
6521 1 164.033 49.197 0.000
6522 1 164.743 50.427 0.000
6523 1 166.163 50.427 0.000
6524 1 166.874 49.197 0.000
6525 1 168.294 49.197 0.000
6526 1 169.004 50.427 0.000
6527 1 170.424 50.427 0.000
6528 1 171.134 49.197 0.000
6529 1 172.554 49.197 0.000
6530 1 173.264 50.427 0.000
6531 1 174.685 50.427 0.000
6532 1 175.395 49.197 0.000
6533 1 176.815 49.197 0.000
6534 1 177.525 50.427 0.000
6535 2 177.525 50.427 -1.500
6536 3 178.625 50.427 -1.633
6537 3 176.975 51.380 -1.633
6538 3 176.975 49.474 -1.633
6539 1 178.945 50.427 0.000
6540 1 179.655 49.197 0.000
6541 1 181.076 49.197 0.000
6542 1 181.786 50.427 0.000
6543 1 183.206 50.427 0.000
6544 1 183.916 49.197 0.000
6545 1 185.336 49.197 0.000
6546 1 186.046 50.427 0.000
6547 1 187.466 50.427 0.000
6548 1 188.177 49.197 0.000
6549 1 189.597 49.197 0.000
6550 1 190.307 50.427 0.000
6551 2 190.307 50.427 -1.500
6552 3 191.407 50.427 -1.633
6553 3 189.757 51.380 -1.633
6554 3 189.757 49.474 -1.633
6555 1 191.727 50.427 0.000
6556 1 192.437 49.197 0.000
6557 1 193.857 49.197 0.000
6558 1 194.567 50.427 0.000
6559 1 195.988 50.427 0.000
6560 1 196.698 49.197 0.000
6561 1 198.118 49.197 0.000
6562 1 198.828 50.427 0.000
6563 1 200.248 50.427 0.000
6564 3 200.248 50.427 1.100
6565 1 200.958 49.197 0.000
6566 1 202.379 49.197 0.000
6567 2 202.379 49.197 -1.500
6568 3 203.478 49.197 -1.633
6569 3 201.828 50.150 -1.633
6570 3 201.828 48.245 -1.633
6571 1 203.089 50.427 0.000
6572 1 204.509 50.427 0.000
6573 1 205.219 49.197 0.000
6574 1 206.639 49.197 0.000
6575 1 207.349 50.427 0.000
6576 1 208.769 50.427 0.000
6577 1 209.480 49.197 0.000
6578 1 210.900 49.197 0.000
6579 1 211.610 50.427 0.000
6580 1 213.030 50.427 0.000
6581 2 213.030 50.427 -1.500
6582 3 214.130 50.427 -1.633
6583 3 212.480 51.380 -1.633
6584 3 212.480 49.474 -1.633
6585 1 213.740 49.197 0.000
6586 1 215.160 49.197 0.000
6587 1 215.870 50.427 0.000
6588 1 217.291 50.427 0.000
6589 3 217.291 50.427 1.100
6590 1 218.001 49.197 0.000
6591 1 219.421 49.197 0.000
6592 1 220.131 50.427 0.000
6593 1 221.551 50.427 0.000
6594 1 222.261 49.197 0.000
6595 1 223.681 49.197 0.000
6596 2 223.681 49.197 1.500
6597 3 224.781 49.197 1.633
6598 3 223.131 50.150 1.633
6599 3 223.131 48.245 1.633
6600 1 224.392 50.427 0.000
6601 1 225.812 50.427 0.000
6602 1 226.522 49.197 0.000
6603 1 227.942 49.197 0.000
6604 1 228.652 50.427 0.000
6605 1 230.072 50.427 0.000
6606 1 230.783 49.197 0.000
6607 1 232.203 49.197 0.000
6608 1 232.913 50.427 0.000
6609 3 232.913 50.427 1.100
6610 1 234.333 50.427 0.000
6611 3 234.333 50.427 -1.100
6612 1 235.043 49.197 0.000
6613 1 236.463 49.197 0.000
6614 1 237.173 50.427 0.000
6615 1 238.594 50.427 0.000
6616 2 238.594 50.427 -1.500
6617 3 239.694 50.427 -1.633
6618 3 238.044 51.380 -1.633
6619 3 238.044 49.474 -1.633
6620 1 239.304 49.197 0.000
6621 1 240.724 49.197 0.000
6622 1 241.434 50.427 0.000
6623 1 242.854 50.427 0.000
6624 3 242.854 50.427 1.100
6625 1 243.564 49.197 0.000
6626 3 243.564 49.197 1.100
6627 1 244.985 49.197 0.000
6628 3 244.985 49.197 1.100
6629 1 245.695 50.427 0.000
6630 1 247.115 50.427 0.000
6631 1 247.825 49.197 0.000
6632 1 249.245 49.197 0.000
6633 1 249.955 50.427 0.000
6634 1 0.000 52.887 0.000
6635 1 0.710 51.657 0.000
6636 1 2.130 51.657 0.000
6637 1 2.840 52.887 0.000
6638 1 4.261 52.887 0.000
6639 1 4.971 51.657 0.000
6640 1 6.391 51.657 0.000
6641 1 7.101 52.887 0.000
6642 1 8.521 52.887 0.000
6643 1 9.231 51.657 0.000
6644 1 10.652 51.657 0.000
6645 1 11.362 52.887 0.000
6646 1 12.782 52.887 0.000
6647 1 13.492 51.657 0.000
6648 1 14.912 51.657 0.000
6649 1 15.622 52.887 0.000
6650 2 15.622 52.887 1.500
6651 3 16.722 52.887 1.633
6652 3 15.072 53.840 1.633
6653 3 15.072 51.934 1.633
6654 1 17.042 52.887 0.000
6655 1 17.753 51.657 0.000
6656 1 19.173 51.657 0.000
6657 1 19.883 52.887 0.000
6658 1 21.303 52.887 0.000
6659 1 22.013 51.657 0.000
6660 1 23.433 51.657 0.000
6661 1 24.143 52.887 0.000
6662 1 25.564 52.887 0.000
6663 2 25.564 52.887 1.500
6664 3 26.664 52.887 1.633
6665 3 25.014 53.840 1.633
6666 3 25.014 51.934 1.633
6667 1 26.274 51.657 0.000
6668 1 27.694 51.657 0.000
6669 1 28.404 52.887 0.000
6670 1 29.824 52.887 0.000
6671 1 30.534 51.657 0.000
6672 3 30.534 51.657 -1.100
6673 1 31.954 51.657 0.000
6674 1 32.665 52.887 0.000
6675 1 34.085 52.887 0.000
6676 1 34.795 51.657 0.000
6677 1 36.215 51.657 0.000
6678 1 36.925 52.887 0.000
6679 1 38.345 52.887 0.000
6680 1 39.055 51.657 0.000
6681 1 40.476 51.657 0.000
6682 1 41.186 52.887 0.000
6683 1 42.606 52.887 0.000
6684 1 43.316 51.657 0.000
6685 1 44.736 51.657 0.000
6686 3 44.736 51.657 1.100
6687 1 45.446 52.887 0.000
6688 1 46.867 52.887 0.000
6689 1 47.577 51.657 0.000
6690 1 48.997 51.657 0.000
6691 1 49.707 52.887 0.000
6692 3 49.707 52.887 -1.100
6693 1 51.127 52.887 0.000
6694 1 51.837 51.657 0.000
6695 1 53.258 51.657 0.000
6696 3 53.258 51.657 1.100
6697 1 53.968 52.887 0.000
6698 1 55.388 52.887 0.000
6699 1 56.098 51.657 0.000
6700 1 57.518 51.657 0.000
6701 1 58.228 52.887 0.000
6702 1 59.648 52.887 0.000
6703 1 60.358 51.657 0.000
6704 1 61.779 51.657 0.000
6705 1 62.489 52.887 0.000
6706 1 63.909 52.887 0.000
6707 3 63.909 52.887 -1.100
6708 1 64.619 51.657 0.000
6709 1 66.039 51.657 0.000
6710 1 66.749 52.887 0.000
6711 1 68.170 52.887 0.000
6712 1 68.880 51.657 0.000
6713 1 70.300 51.657 0.000
6714 2 70.300 51.657 -1.500
6715 3 71.400 51.657 -1.633
6716 3 69.750 52.610 -1.633
6717 3 69.750 50.704 -1.633
6718 1 71.010 52.887 0.000
6719 1 72.430 52.887 0.000
6720 1 73.140 51.657 0.000
6721 1 74.561 51.657 0.000
6722 1 75.271 52.887 0.000
6723 1 76.691 52.887 0.000
6724 1 77.401 51.657 0.000
6725 1 78.821 51.657 0.000
6726 1 79.531 52.887 0.000
6727 1 80.951 52.887 0.000
6728 1 81.662 51.657 0.000
6729 1 83.082 51.657 0.000
6730 1 83.792 52.887 0.000
6731 3 83.792 52.887 -1.100
6732 1 85.212 52.887 0.000
6733 1 85.922 51.657 0.000
6734 3 85.922 51.657 -1.100
6735 1 87.342 51.657 0.000
6736 1 88.052 52.887 0.000
6737 1 89.473 52.887 0.000
6738 3 89.473 52.887 1.100
6739 1 90.183 51.657 0.000
6740 3 90.183 51.657 -1.100
6741 1 91.603 51.657 0.000
6742 1 92.313 52.887 0.000
6743 1 93.733 52.887 0.000
6744 1 94.443 51.657 0.000
6745 1 95.864 51.657 0.000
6746 1 96.574 52.887 0.000
6747 1 97.994 52.887 0.000
6748 1 98.704 51.657 0.000
6749 1 100.124 51.657 0.000
6750 1 100.834 52.887 0.000
6751 1 102.254 52.887 0.000
6752 1 102.965 51.657 0.000
6753 1 104.385 51.657 0.000
6754 1 105.095 52.887 0.000
6755 1 106.515 52.887 0.000
6756 3 106.515 52.887 1.100
6757 1 107.225 51.657 0.000
6758 1 108.645 51.657 0.000
6759 1 109.355 52.887 0.000
6760 1 110.776 52.887 0.000
6761 1 111.486 51.657 0.000
6762 2 111.486 51.657 -1.500
6763 3 112.586 51.657 -1.633
6764 3 110.936 52.610 -1.633
6765 3 110.936 50.704 -1.633
6766 1 112.906 51.657 0.000
6767 1 113.616 52.887 0.000
6768 1 115.036 52.887 0.000
6769 1 115.746 51.657 0.000
6770 1 117.167 51.657 0.000
6771 2 117.167 51.657 -1.500
6772 3 118.267 51.657 -1.633
6773 3 116.617 52.610 -1.633
6774 3 116.617 50.704 -1.633
6775 1 117.877 52.887 0.000
6776 1 119.297 52.887 0.000
6777 1 120.007 51.657 0.000
6778 1 121.427 51.657 0.000
6779 3 121.427 51.657 1.100
6780 1 122.137 52.887 0.000
6781 2 122.137 52.887 -1.500
6782 3 123.237 52.887 -1.633
6783 3 121.587 53.840 -1.633
6784 3 121.587 51.934 -1.633
6785 1 123.557 52.887 0.000
6786 1 124.267 51.657 0.000
6787 1 125.688 51.657 0.000
6788 1 126.398 52.887 0.000
6789 1 127.818 52.887 0.000
6790 1 128.528 51.657 0.000
6791 1 129.948 51.657 0.000
6792 1 130.658 52.887 0.000
6793 1 132.079 52.887 0.000
6794 1 132.789 51.657 0.000
6795 1 134.209 51.657 0.000
6796 1 134.919 52.887 0.000
6797 1 136.339 52.887 0.000
6798 1 137.049 51.657 0.000
6799 1 138.470 51.657 0.000
6800 1 139.180 52.887 0.000
6801 3 139.180 52.887 -1.100
6802 1 140.600 52.887 0.000
6803 1 141.310 51.657 0.000
6804 1 142.730 51.657 0.000
6805 1 143.440 52.887 0.000
6806 1 144.860 52.887 0.000
6807 1 145.571 51.657 0.000
6808 3 145.571 51.657 1.100
6809 1 146.991 51.657 0.000
6810 1 147.701 52.887 0.000
6811 1 149.121 52.887 0.000
6812 3 149.121 52.887 1.100
6813 1 149.831 51.657 0.000
6814 3 149.831 51.657 -1.100
6815 1 151.251 51.657 0.000
6816 3 151.251 51.657 -1.100
6817 1 151.961 52.887 0.000
6818 3 151.961 52.887 -1.100
6819 1 153.382 52.887 0.000
6820 1 154.092 51.657 0.000
6821 1 155.512 51.657 0.000
6822 1 156.222 52.887 0.000
6823 1 157.642 52.887 0.000
6824 1 158.352 51.657 0.000
6825 1 159.773 51.657 0.000
6826 1 160.483 52.887 0.000
6827 1 161.903 52.887 0.000
6828 1 162.613 51.657 0.000
6829 1 164.033 51.657 0.000
6830 1 164.743 52.887 0.000
6831 1 166.163 52.887 0.000
6832 1 166.874 51.657 0.000
6833 1 168.294 51.657 0.000
6834 1 169.004 52.887 0.000
6835 1 170.424 52.887 0.000
6836 1 171.134 51.657 0.000
6837 1 172.554 51.657 0.000
6838 1 173.264 52.887 0.000
6839 1 174.685 52.887 0.000
6840 1 175.395 51.657 0.000
6841 1 176.815 51.657 0.000
6842 1 177.525 52.887 0.000
6843 1 178.945 52.887 0.000
6844 1 179.655 51.657 0.000
6845 1 181.076 51.657 0.000
6846 1 181.786 52.887 0.000
6847 3 181.786 52.887 -1.100
6848 1 183.206 52.887 0.000
6849 1 183.916 51.657 0.000
6850 1 185.336 51.657 0.000
6851 1 186.046 52.887 0.000
6852 1 187.466 52.887 0.000
6853 1 188.177 51.657 0.000
6854 1 189.597 51.657 0.000
6855 1 190.307 52.887 0.000
6856 1 191.727 52.887 0.000
6857 1 192.437 51.657 0.000
6858 3 192.437 51.657 -1.100
6859 1 193.857 51.657 0.000
6860 1 194.567 52.887 0.000
6861 1 195.988 52.887 0.000
6862 1 196.698 51.657 0.000
6863 1 198.118 51.657 0.000
6864 1 198.828 52.887 0.000
6865 1 200.248 52.887 0.000
6866 3 200.248 52.887 1.100
6867 1 200.958 51.657 0.000
6868 1 202.379 51.657 0.000
6869 2 202.379 51.657 1.500
6870 3 203.478 51.657 1.633
6871 3 201.828 52.610 1.633
6872 3 201.828 50.704 1.633
6873 1 203.089 52.887 0.000
6874 1 204.509 52.887 0.000
6875 1 205.219 51.657 0.000
6876 1 206.639 51.657 0.000
6877 1 207.349 52.887 0.000
6878 1 208.769 52.887 0.000
6879 1 209.480 51.657 0.000
6880 3 209.480 51.657 -1.100
6881 1 210.900 51.657 0.000
6882 1 211.610 52.887 0.000
6883 1 213.030 52.887 0.000
6884 1 213.740 51.657 0.000
6885 1 215.160 51.657 0.000
6886 1 215.870 52.887 0.000
6887 1 217.291 52.887 0.000
6888 3 217.291 52.887 1.100
6889 1 218.001 51.657 0.000
6890 1 219.421 51.657 0.000
6891 1 220.131 52.887 0.000
6892 1 221.551 52.887 0.000
6893 1 222.261 51.657 0.000
6894 1 223.681 51.657 0.000
6895 1 224.392 52.887 0.000
6896 1 225.812 52.887 0.000
6897 3 225.812 52.887 1.100
6898 1 226.522 51.657 0.000
6899 1 227.942 51.657 0.000
6900 2 227.942 51.657 -1.500
6901 3 229.042 51.657 -1.633
6902 3 227.392 52.610 -1.633
6903 3 227.392 50.704 -1.633
6904 1 228.652 52.887 0.000
6905 1 230.072 52.887 0.000
6906 3 230.072 52.887 -1.100
6907 1 230.783 51.657 0.000
6908 1 232.203 51.657 0.000
6909 1 232.913 52.887 0.000
6910 1 234.333 52.887 0.000
6911 3 234.333 52.887 1.100
6912 1 235.043 51.657 0.000
6913 1 236.463 51.657 0.000
6914 1 237.173 52.887 0.000
6915 1 238.594 52.887 0.000
6916 3 238.594 52.887 1.100
6917 1 239.304 51.657 0.000
6918 1 240.724 51.657 0.000
6919 1 241.434 52.887 0.000
6920 1 242.854 52.887 0.000
6921 1 243.564 51.657 0.000
6922 1 244.985 51.657 0.000
6923 1 245.695 52.887 0.000
6924 3 245.695 52.887 1.100
6925 1 247.115 52.887 0.000
6926 1 247.825 51.657 0.000
6927 1 249.245 51.657 0.000
6928 1 249.955 52.887 0.000
6929 1 0.000 55.347 0.000
6930 1 0.710 54.117 0.000
6931 1 2.130 54.117 0.000
6932 1 2.840 55.347 0.000
6933 1 4.261 55.347 0.000
6934 1 4.971 54.117 0.000
6935 1 6.391 54.117 0.000
6936 1 7.101 55.347 0.000
6937 1 8.521 55.347 0.000
6938 1 9.231 54.117 0.000
6939 1 10.652 54.117 0.000
6940 3 10.652 54.117 1.100
6941 1 11.362 55.347 0.000
6942 1 12.782 55.347 0.000
6943 1 13.492 54.117 0.000
6944 1 14.912 54.117 0.000
6945 3 14.912 54.117 -1.100
6946 1 15.622 55.347 0.000
6947 1 17.042 55.347 0.000
6948 3 17.042 55.347 1.100
6949 1 17.753 54.117 0.000
6950 3 17.753 54.117 1.100
6951 1 19.173 54.117 0.000
6952 1 19.883 55.347 0.000
6953 1 21.303 55.347 0.000
6954 1 22.013 54.117 0.000
6955 1 23.433 54.117 0.000
6956 1 24.143 55.347 0.000
6957 1 25.564 55.347 0.000
6958 1 26.274 54.117 0.000
6959 1 27.694 54.117 0.000
6960 1 28.404 55.347 0.000
6961 1 29.824 55.347 0.000
6962 1 30.534 54.117 0.000
6963 1 31.954 54.117 0.000
6964 1 32.665 55.347 0.000
6965 1 34.085 55.347 0.000
6966 1 34.795 54.117 0.000
6967 1 36.215 54.117 0.000
6968 1 36.925 55.347 0.000
6969 1 38.345 55.347 0.000
6970 3 38.345 55.347 1.100
6971 1 39.055 54.117 0.000
6972 1 40.476 54.117 0.000
6973 3 40.476 54.117 1.100
6974 1 41.186 55.347 0.000
6975 1 42.606 55.347 0.000
6976 1 43.316 54.117 0.000
6977 1 44.736 54.117 0.000
6978 1 45.446 55.347 0.000
6979 1 46.867 55.347 0.000
6980 2 46.867 55.347 -1.500
6981 3 47.967 55.347 -1.633
6982 3 46.317 56.299 -1.633
6983 3 46.317 54.394 -1.633
6984 1 47.577 54.117 0.000
6985 1 48.997 54.117 0.000
6986 2 48.997 54.117 1.500
6987 3 50.097 54.117 1.633
6988 3 48.447 55.070 1.633
6989 3 48.447 53.164 1.633
6990 1 49.707 55.347 0.000
6991 1 51.127 55.347 0.000
6992 1 51.837 54.117 0.000
6993 1 53.258 54.117 0.000
6994 1 53.968 55.347 0.000
6995 1 55.388 55.347 0.000
6996 1 56.098 54.117 0.000
6997 3 56.098 54.117 1.100
6998 1 57.518 54.117 0.000
6999 3 57.518 54.117 -1.100
7000 1 58.228 55.347 0.000
7001 1 59.648 55.347 0.000
7002 1 60.358 54.117 0.000
7003 1 61.779 54.117 0.000
7004 1 62.489 55.347 0.000
7005 1 63.909 55.347 0.000
7006 2 63.909 55.347 -1.500
7007 3 65.009 55.347 -1.633
7008 3 63.359 56.299 -1.633
7009 3 63.359 54.394 -1.633
7010 1 64.619 54.117 0.000
7011 1 66.039 54.117 0.000
7012 1 66.749 55.347 0.000
7013 3 66.749 55.347 1.100
7014 1 68.170 55.347 0.000
7015 1 68.880 54.117 0.000
7016 3 68.880 54.117 -1.100
7017 1 70.300 54.117 0.000
7018 3 70.300 54.117 1.100
7019 1 71.010 55.347 0.000
7020 3 71.010 55.347 1.100
7021 1 72.430 55.347 0.000
7022 1 73.140 54.117 0.000
7023 1 74.561 54.117 0.000
7024 1 75.271 55.347 0.000
7025 3 75.271 55.347 1.100
7026 1 76.691 55.347 0.000
7027 1 77.401 54.117 0.000
7028 1 78.821 54.117 0.000
7029 1 79.531 55.347 0.000
7030 1 80.951 55.347 0.000
7031 1 81.662 54.117 0.000
7032 1 83.082 54.117 0.000
7033 1 83.792 55.347 0.000
7034 1 85.212 55.347 0.000
7035 1 85.922 54.117 0.000
7036 1 87.342 54.117 0.000
7037 2 87.342 54.117 -1.500
7038 3 88.442 54.117 -1.633
7039 3 86.792 55.070 -1.633
7040 3 86.792 53.164 -1.633
7041 1 88.052 55.347 0.000
7042 1 89.473 55.347 0.000
7043 1 90.183 54.117 0.000
7044 1 91.603 54.117 0.000
7045 1 92.313 55.347 0.000
7046 1 93.733 55.347 0.000
7047 1 94.443 54.117 0.000
7048 2 94.443 54.117 -1.500
7049 3 95.543 54.117 -1.633
7050 3 93.893 55.070 -1.633
7051 3 93.893 53.164 -1.633
7052 1 95.864 54.117 0.000
7053 1 96.574 55.347 0.000
7054 1 97.994 55.347 0.000
7055 1 98.704 54.117 0.000
7056 3 98.704 54.117 -1.100
7057 1 100.124 54.117 0.000
7058 1 100.834 55.347 0.000
7059 1 102.254 55.347 0.000
7060 1 102.965 54.117 0.000
7061 1 104.385 54.117 0.000
7062 1 105.095 55.347 0.000
7063 1 106.515 55.347 0.000
7064 1 107.225 54.117 0.000
7065 1 108.645 54.117 0.000
7066 1 109.355 55.347 0.000
7067 1 110.776 55.347 0.000
7068 1 111.486 54.117 0.000
7069 1 112.906 54.117 0.000
7070 1 113.616 55.347 0.000
7071 1 115.036 55.347 0.000
7072 1 115.746 54.117 0.000
7073 1 117.167 54.117 0.000
7074 1 117.877 55.347 0.000
7075 1 119.297 55.347 0.000
7076 1 120.007 54.117 0.000
7077 1 121.427 54.117 0.000
7078 1 122.137 55.347 0.000
7079 1 123.557 55.347 0.000
7080 1 124.267 54.117 0.000
7081 1 125.688 54.117 0.000
7082 1 126.398 55.347 0.000
7083 1 127.818 55.347 0.000
7084 1 128.528 54.117 0.000
7085 1 129.948 54.117 0.000
7086 1 130.658 55.347 0.000
7087 1 132.079 55.347 0.000
7088 3 132.079 55.347 1.100
7089 1 132.789 54.117 0.000
7090 1 134.209 54.117 0.000
7091 2 134.209 54.117 1.500
7092 3 135.309 54.117 1.633
7093 3 133.659 55.070 1.633
7094 3 133.659 53.164 1.633
7095 1 134.919 55.347 0.000
7096 1 136.339 55.347 0.000
7097 1 137.049 54.117 0.000
7098 1 138.470 54.117 0.000
7099 1 139.180 55.347 0.000
7100 1 140.600 55.347 0.000
7101 1 141.310 54.117 0.000
7102 1 142.730 54.117 0.000
7103 1 143.440 55.347 0.000
7104 1 144.860 55.347 0.000
7105 1 145.571 54.117 0.000
7106 3 145.571 54.117 1.100
7107 1 146.991 54.117 0.000
7108 1 147.701 55.347 0.000
7109 1 149.121 55.347 0.000
7110 3 149.121 55.347 1.100
7111 1 149.831 54.117 0.000
7112 1 151.251 54.117 0.000
7113 1 151.961 55.347 0.000
7114 2 151.961 55.347 -1.500
7115 3 153.061 55.347 -1.633
7116 3 151.411 56.299 -1.633
7117 3 151.411 54.394 -1.633
7118 1 153.382 55.347 0.000
7119 1 154.092 54.117 0.000
7120 1 155.512 54.117 0.000
7121 3 155.512 54.117 1.100
7122 1 156.222 55.347 0.000
7123 1 157.642 55.347 0.000
7124 1 158.352 54.117 0.000
7125 3 158.352 54.117 1.100
7126 1 159.773 54.117 0.000
7127 1 160.483 55.347 0.000
7128 1 161.903 55.347 0.000
7129 1 162.613 54.117 0.000
7130 1 164.033 54.117 0.000
7131 1 164.743 55.347 0.000
7132 1 166.163 55.347 0.000
7133 3 166.163 55.347 -1.100
7134 1 166.874 54.117 0.000
7135 1 168.294 54.117 0.000
7136 2 168.294 54.117 -1.500
7137 3 169.394 54.117 -1.633
7138 3 167.744 55.070 -1.633
7139 3 167.744 53.164 -1.633
7140 1 169.004 55.347 0.000
7141 1 170.424 55.347 0.000
7142 1 171.134 54.117 0.000
7143 1 172.554 54.117 0.000
7144 1 173.264 55.347 0.000
7145 1 174.685 55.347 0.000
7146 2 174.685 55.347 1.500
7147 3 175.785 55.347 1.633
7148 3 174.135 56.299 1.633
7149 3 174.135 54.394 1.633
7150 1 175.395 54.117 0.000
7151 3 175.395 54.117 -1.100
7152 1 176.815 54.117 0.000
7153 1 177.525 55.347 0.000
7154 1 178.945 55.347 0.000
7155 1 179.655 54.117 0.000
7156 1 181.076 54.117 0.000
7157 1 181.786 55.347 0.000
7158 1 183.206 55.347 0.000
7159 2 183.206 55.347 1.500
7160 3 184.306 55.347 1.633
7161 3 182.656 56.299 1.633
7162 3 182.656 54.394 1.633
7163 1 183.916 54.117 0.000
7164 1 185.336 54.117 0.000
7165 1 186.046 55.347 0.000
7166 1 187.466 55.347 0.000
7167 1 188.177 54.117 0.000
7168 1 189.597 54.117 0.000
7169 1 190.307 55.347 0.000
7170 1 191.727 55.347 0.000
7171 2 191.727 55.347 1.500
7172 3 192.827 55.347 1.633
7173 3 191.177 56.299 1.633
7174 3 191.177 54.394 1.633
7175 1 192.437 54.117 0.000
7176 1 193.857 54.117 0.000
7177 1 194.567 55.347 0.000
7178 2 194.567 55.347 -1.500
7179 3 195.667 55.347 -1.633
7180 3 194.017 56.299 -1.633
7181 3 194.017 54.394 -1.633
7182 1 195.988 55.347 0.000
7183 1 196.698 54.117 0.000
7184 1 198.118 54.117 0.000
7185 1 198.828 55.347 0.000
7186 1 200.248 55.347 0.000
7187 1 200.958 54.117 0.000
7188 1 202.379 54.117 0.000
7189 1 203.089 55.347 0.000
7190 1 204.509 55.347 0.000
7191 1 205.219 54.117 0.000
7192 1 206.639 54.117 0.000
7193 2 206.639 54.117 1.500
7194 3 207.739 54.117 1.633
7195 3 206.089 55.070 1.633
7196 3 206.089 53.164 1.633
7197 1 207.349 55.347 0.000
7198 1 208.769 55.347 0.000
7199 1 209.480 54.117 0.000
7200 2 209.480 54.117 -1.500
7201 3 210.580 54.117 -1.633
7202 3 208.930 55.070 -1.633
7203 3 208.930 53.164 -1.633
7204 1 210.900 54.117 0.000
7205 1 211.610 55.347 0.000
7206 1 213.030 55.347 0.000
7207 1 213.740 54.117 0.000
7208 1 215.160 54.117 0.000
7209 1 215.870 55.347 0.000
7210 1 217.291 55.347 0.000
7211 1 218.001 54.117 0.000
7212 1 219.421 54.117 0.000
7213 1 220.131 55.347 0.000
7214 1 221.551 55.347 0.000
7215 1 222.261 54.117 0.000
7216 2 222.261 54.117 1.500
7217 3 223.361 54.117 1.633
7218 3 221.711 55.070 1.633
7219 3 221.711 53.164 1.633
7220 1 223.681 54.117 0.000
7221 1 224.392 55.347 0.000
7222 1 225.812 55.347 0.000
7223 1 226.522 54.117 0.000
7224 1 227.942 54.117 0.000
7225 1 228.652 55.347 0.000
7226 1 230.072 55.347 0.000
7227 1 230.783 54.117 0.000
7228 3 230.783 54.117 1.100
7229 1 232.203 54.117 0.000
7230 3 232.203 54.117 1.100
7231 1 232.913 55.347 0.000
7232 1 234.333 55.347 0.000
7233 1 235.043 54.117 0.000
7234 1 236.463 54.117 0.000
7235 3 236.463 54.117 1.100
7236 1 237.173 55.347 0.000
7237 1 238.594 55.347 0.000
7238 1 239.304 54.117 0.000
7239 1 240.724 54.117 0.000
7240 3 240.724 54.117 1.100
7241 1 241.434 55.347 0.000
7242 1 242.854 55.347 0.000
7243 1 243.564 54.117 0.000
7244 1 244.985 54.117 0.000
7245 1 245.695 55.347 0.000
7246 1 247.115 55.347 0.000
7247 1 247.825 54.117 0.000
7248 1 249.245 54.117 0.000
7249 1 249.955 55.347 0.000
7250 1 0.000 57.807 0.000
7251 1 0.710 56.577 0.000
7252 1 2.130 56.577 0.000
7253 1 2.840 57.807 0.000
7254 3 2.840 57.807 -1.100
7255 1 4.261 57.807 0.000
7256 1 4.971 56.577 0.000
7257 1 6.391 56.577 0.000
7258 1 7.101 57.807 0.000
7259 1 8.521 57.807 0.000
7260 1 9.231 56.577 0.000
7261 1 10.652 56.577 0.000
7262 1 11.362 57.807 0.000
7263 1 12.782 57.807 0.000
7264 1 13.492 56.577 0.000
7265 3 13.492 56.577 -1.100
7266 1 14.912 56.577 0.000
7267 1 15.622 57.807 0.000
7268 2 15.622 57.807 1.500
7269 3 16.722 57.807 1.633
7270 3 15.072 58.759 1.633
7271 3 15.072 56.854 1.633
7272 1 17.042 57.807 0.000
7273 1 17.753 56.577 0.000
7274 1 19.173 56.577 0.000
7275 3 19.173 56.577 1.100
7276 1 19.883 57.807 0.000
7277 1 21.303 57.807 0.000
7278 1 22.013 56.577 0.000
7279 1 23.433 56.577 0.000
7280 1 24.143 57.807 0.000
7281 3 24.143 57.807 1.100
7282 1 25.564 57.807 0.000
7283 1 26.274 56.577 0.000
7284 1 27.694 56.577 0.000
7285 2 27.694 56.577 1.500
7286 3 28.794 56.577 1.633
7287 3 27.144 57.529 1.633
7288 3 27.144 55.624 1.633
7289 1 28.404 57.807 0.000
7290 1 29.824 57.807 0.000
7291 1 30.534 56.577 0.000
7292 1 31.954 56.577 0.000
7293 1 32.665 57.807 0.000
7294 1 34.085 57.807 0.000
7295 1 34.795 56.577 0.000
7296 1 36.215 56.577 0.000
7297 1 36.925 57.807 0.000
7298 1 38.345 57.807 0.000
7299 1 39.055 56.577 0.000
7300 1 40.476 56.577 0.000
7301 1 41.186 57.807 0.000
7302 1 42.606 57.807 0.000
7303 1 43.316 56.577 0.000
7304 1 44.736 56.577 0.000
7305 1 45.446 57.807 0.000
7306 1 46.867 57.807 0.000
7307 1 47.577 56.577 0.000
7308 1 48.997 56.577 0.000
7309 1 49.707 57.807 0.000
7310 1 51.127 57.807 0.000
7311 1 51.837 56.577 0.000
7312 1 53.258 56.577 0.000
7313 1 53.968 57.807 0.000
7314 1 55.388 57.807 0.000
7315 2 55.388 57.807 1.500
7316 3 56.488 57.807 1.633
7317 3 54.838 58.759 1.633
7318 3 54.838 56.854 1.633
7319 1 56.098 56.577 0.000
7320 1 57.518 56.577 0.000
7321 2 57.518 56.577 -1.500
7322 3 58.618 56.577 -1.633
7323 3 56.968 57.529 -1.633
7324 3 56.968 55.624 -1.633
7325 1 58.228 57.807 0.000
7326 1 59.648 57.807 0.000
7327 1 60.358 56.577 0.000
7328 1 61.779 56.577 0.000
7329 1 62.489 57.807 0.000
7330 2 62.489 57.807 1.500
7331 3 63.589 57.807 1.633
7332 3 61.939 58.759 1.633
7333 3 61.939 56.854 1.633
7334 1 63.909 57.807 0.000
7335 1 64.619 56.577 0.000
7336 1 66.039 56.577 0.000
7337 1 66.749 57.807 0.000
7338 1 68.170 57.807 0.000
7339 3 68.170 57.807 -1.100
7340 1 68.880 56.577 0.000
7341 3 68.880 56.577 1.100
7342 1 70.300 56.577 0.000
7343 1 71.010 57.807 0.000
7344 1 72.430 57.807 0.000
7345 1 73.140 56.577 0.000
7346 3 73.140 56.577 -1.100
7347 1 74.561 56.577 0.000
7348 1 75.271 57.807 0.000
7349 1 76.691 57.807 0.000
7350 1 77.401 56.577 0.000
7351 3 77.401 56.577 1.100
7352 1 78.821 56.577 0.000
7353 1 79.531 57.807 0.000
7354 1 80.951 57.807 0.000
7355 2 80.951 57.807 1.500
7356 3 82.051 57.807 1.633
7357 3 80.401 58.759 1.633
7358 3 80.401 56.854 1.633
7359 1 81.662 56.577 0.000
7360 1 83.082 56.577 0.000
7361 1 83.792 57.807 0.000
7362 1 85.212 57.807 0.000
7363 1 85.922 56.577 0.000
7364 1 87.342 56.577 0.000
7365 1 88.052 57.807 0.000
7366 1 89.473 57.807 0.000
7367 1 90.183 56.577 0.000
7368 1 91.603 56.577 0.000
7369 1 92.313 57.807 0.000
7370 1 93.733 57.807 0.000
7371 1 94.443 56.577 0.000
7372 2 94.443 56.577 1.500
7373 3 95.543 56.577 1.633
7374 3 93.893 57.529 1.633
7375 3 93.893 55.624 1.633
7376 1 95.864 56.577 0.000
7377 1 96.574 57.807 0.000
7378 1 97.994 57.807 0.000
7379 1 98.704 56.577 0.000
7380 1 100.124 56.577 0.000
7381 2 100.124 56.577 1.500
7382 3 101.224 56.577 1.633
7383 3 99.574 57.529 1.633
7384 3 99.574 55.624 1.633
7385 1 100.834 57.807 0.000
7386 1 102.254 57.807 0.000
7387 3 102.254 57.807 1.100
7388 1 102.965 56.577 0.000
7389 1 104.385 56.577 0.000
7390 1 105.095 57.807 0.000
7391 1 106.515 57.807 0.000
7392 1 107.225 56.577 0.000
7393 1 108.645 56.577 0.000
7394 3 108.645 56.577 1.100
7395 1 109.355 57.807 0.000
7396 1 110.776 57.807 0.000
7397 1 111.486 56.577 0.000
7398 1 112.906 56.577 0.000
7399 1 113.616 57.807 0.000
7400 3 113.616 57.807 1.100
7401 1 115.036 57.807 0.000
7402 1 115.746 56.577 0.000
7403 1 117.167 56.577 0.000
7404 1 117.877 57.807 0.000
7405 3 117.877 57.807 -1.100
7406 1 119.297 57.807 0.000
7407 1 120.007 56.577 0.000
7408 1 121.427 56.577 0.000
7409 1 122.137 57.807 0.000
7410 1 123.557 57.807 0.000
7411 1 124.267 56.577 0.000
7412 1 125.688 56.577 0.000
7413 3 125.688 56.577 -1.100
7414 1 126.398 57.807 0.000
7415 1 127.818 57.807 0.000
7416 1 128.528 56.577 0.000
7417 1 129.948 56.577 0.000
7418 1 130.658 57.807 0.000
7419 1 132.079 57.807 0.000
7420 1 132.789 56.577 0.000
7421 1 134.209 56.577 0.000
7422 1 134.919 57.807 0.000
7423 1 136.339 57.807 0.000
7424 1 137.049 56.577 0.000
7425 1 138.470 56.577 0.000
7426 1 139.180 57.807 0.000
7427 1 140.600 57.807 0.000
7428 1 141.310 56.577 0.000
7429 1 142.730 56.577 0.000
7430 1 143.440 57.807 0.000
7431 1 144.860 57.807 0.000
7432 1 145.571 56.577 0.000
7433 1 146.991 56.577 0.000
7434 1 147.701 57.807 0.000
7435 1 149.121 57.807 0.000
7436 1 149.831 56.577 0.000
7437 3 149.831 56.577 -1.100
7438 1 151.251 56.577 0.000
7439 1 151.961 57.807 0.000
7440 2 151.961 57.807 1.500
7441 3 153.061 57.807 1.633
7442 3 151.411 58.759 1.633
7443 3 151.411 56.854 1.633
7444 1 153.382 57.807 0.000
7445 1 154.092 56.577 0.000
7446 1 155.512 56.577 0.000
7447 2 155.512 56.577 1.500
7448 3 156.612 56.577 1.633
7449 3 154.962 57.529 1.633
7450 3 154.962 55.624 1.633
7451 1 156.222 57.807 0.000
7452 1 157.642 57.807 0.000
7453 1 158.352 56.577 0.000
7454 1 159.773 56.577 0.000
7455 1 160.483 57.807 0.000
7456 1 161.903 57.807 0.000
7457 1 162.613 56.577 0.000
7458 1 164.033 56.577 0.000
7459 1 164.743 57.807 0.000
7460 1 166.163 57.807 0.000
7461 1 166.874 56.577 0.000
7462 1 168.294 56.577 0.000
7463 1 169.004 57.807 0.000
7464 1 170.424 57.807 0.000
7465 1 171.134 56.577 0.000
7466 1 172.554 56.577 0.000
7467 1 173.264 57.807 0.000
7468 1 174.685 57.807 0.000
7469 1 175.395 56.577 0.000
7470 1 176.815 56.577 0.000
7471 1 177.525 57.807 0.000
7472 1 178.945 57.807 0.000
7473 3 178.945 57.807 -1.100
7474 1 179.655 56.577 0.000
7475 1 181.076 56.577 0.000
7476 1 181.786 57.807 0.000
7477 1 183.206 57.807 0.000
7478 1 183.916 56.577 0.000
7479 1 185.336 56.577 0.000
7480 1 186.046 57.807 0.000
7481 1 187.466 57.807 0.000
7482 1 188.177 56.577 0.000
7483 1 189.597 56.577 0.000
7484 1 190.307 57.807 0.000
7485 1 191.727 57.807 0.000
7486 1 192.437 56.577 0.000
7487 1 193.857 56.577 0.000
7488 1 194.567 57.807 0.000
7489 2 194.567 57.807 1.500
7490 3 195.667 57.807 1.633
7491 3 194.017 58.759 1.633
7492 3 194.017 56.854 1.633
7493 1 195.988 57.807 0.000
7494 1 196.698 56.577 0.000
7495 1 198.118 56.577 0.000
7496 1 198.828 57.807 0.000
7497 3 198.828 57.807 1.100
7498 1 200.248 57.807 0.000
7499 3 200.248 57.807 -1.100
7500 1 200.958 56.577 0.000
7501 1 202.379 56.577 0.000
7502 1 203.089 57.807 0.000
7503 1 204.509 57.807 0.000
7504 1 205.219 56.577 0.000
7505 1 206.639 56.577 0.000
7506 1 207.349 57.807 0.000
7507 1 208.769 57.807 0.000
7508 1 209.480 56.577 0.000
7509 1 210.900 56.577 0.000
7510 2 210.900 56.577 1.500
7511 3 212.000 56.577 1.633
7512 3 210.350 57.529 1.633
7513 3 210.350 55.624 1.633
7514 1 211.610 57.807 0.000
7515 1 213.030 57.807 0.000
7516 1 213.740 56.577 0.000
7517 1 215.160 56.577 0.000
7518 1 215.870 57.807 0.000
7519 1 217.291 57.807 0.000
7520 1 218.001 56.577 0.000
7521 1 219.421 56.577 0.000
7522 1 220.131 57.807 0.000
7523 1 221.551 57.807 0.000
7524 1 222.261 56.577 0.000
7525 1 223.681 56.577 0.000
7526 1 224.392 57.807 0.000
7527 2 224.392 57.807 -1.500
7528 3 225.492 57.807 -1.633
7529 3 223.842 58.759 -1.633
7530 3 223.842 56.854 -1.633
7531 1 225.812 57.807 0.000
7532 1 226.522 56.577 0.000
7533 1 227.942 56.577 0.000
7534 1 228.652 57.807 0.000
7535 1 230.072 57.807 0.000
7536 1 230.783 56.577 0.000
7537 2 230.783 56.577 -1.500
7538 3 231.883 56.577 -1.633
7539 3 230.233 57.529 -1.633
7540 3 230.233 55.624 -1.633
7541 1 232.203 56.577 0.000
7542 1 232.913 57.807 0.000
7543 1 234.333 57.807 0.000
7544 1 235.043 56.577 0.000
7545 1 236.463 56.577 0.000
7546 1 237.173 57.807 0.000
7547 1 238.594 57.807 0.000
7548 2 238.594 57.807 -1.500
7549 3 239.694 57.807 -1.633
7550 3 238.044 58.759 -1.633
7551 3 238.044 56.854 -1.633
7552 1 239.304 56.577 0.000
7553 1 240.724 56.577 0.000
7554 1 241.434 57.807 0.000
7555 3 241.434 57.807 1.100
7556 1 242.854 57.807 0.000
7557 1 243.564 56.577 0.000
7558 1 244.985 56.577 0.000
7559 1 245.695 57.807 0.000
7560 3 245.695 57.807 1.100
7561 1 247.115 57.807 0.000
7562 1 247.825 56.577 0.000
7563 1 249.245 56.577 0.000
7564 1 249.955 57.807 0.000
7565 2 249.955 57.807 -1.500
7566 3 251.055 57.807 -1.633
7567 3 249.405 58.759 -1.633
7568 3 249.405 56.854 -1.633
7569 1 0.000 60.267 0.000
7570 1 0.710 59.037 0.000
7571 1 2.130 59.037 0.000
7572 1 2.840 60.267 0.000
7573 1 4.261 60.267 0.000
7574 1 4.971 59.037 0.000
7575 1 6.391 59.037 0.000
7576 1 7.101 60.267 0.000
7577 1 8.521 60.267 0.000
7578 1 9.231 59.037 0.000
7579 1 10.652 59.037 0.000
7580 1 11.362 60.267 0.000
7581 1 12.782 60.267 0.000
7582 2 12.782 60.267 -1.500
7583 3 13.882 60.267 -1.633
7584 3 12.232 61.219 -1.633
7585 3 12.232 59.314 -1.633
7586 1 13.492 59.037 0.000
7587 1 14.912 59.037 0.000
7588 1 15.622 60.267 0.000
7589 1 17.042 60.267 0.000
7590 3 17.042 60.267 -1.100
7591 1 17.753 59.037 0.000
7592 3 17.753 59.037 1.100
7593 1 19.173 59.037 0.000
7594 1 19.883 60.267 0.000
7595 1 21.303 60.267 0.000
7596 1 22.013 59.037 0.000
7597 1 23.433 59.037 0.000
7598 1 24.143 60.267 0.000
7599 1 25.564 60.267 0.000
7600 1 26.274 59.037 0.000
7601 1 27.694 59.037 0.000
7602 1 28.404 60.267 0.000
7603 1 29.824 60.267 0.000
7604 1 30.534 59.037 0.000
7605 3 30.534 59.037 1.100
7606 1 31.954 59.037 0.000
7607 1 32.665 60.267 0.000
7608 1 34.085 60.267 0.000
7609 1 34.795 59.037 0.000
7610 1 36.215 59.037 0.000
7611 1 36.925 60.267 0.000
7612 1 38.345 60.267 0.000
7613 1 39.055 59.037 0.000
7614 1 40.476 59.037 0.000
7615 1 41.186 60.267 0.000
7616 1 42.606 60.267 0.000
7617 1 43.316 59.037 0.000
7618 1 44.736 59.037 0.000
7619 1 45.446 60.267 0.000
7620 1 46.867 60.267 0.000
7621 2 46.867 60.267 -1.500
7622 3 47.967 60.267 -1.633
7623 3 46.317 61.219 -1.633
7624 3 46.317 59.314 -1.633
7625 1 47.577 59.037 0.000
7626 1 48.997 59.037 0.000
7627 1 49.707 60.267 0.000
7628 1 51.127 60.267 0.000
7629 1 51.837 59.037 0.000
7630 1 53.258 59.037 0.000
7631 3 53.258 59.037 -1.100
7632 1 53.968 60.267 0.000
7633 1 55.388 60.267 0.000
7634 1 56.098 59.037 0.000
7635 1 57.518 59.037 0.000
7636 1 58.228 60.267 0.000
7637 2 58.228 60.267 -1.500
7638 3 59.328 60.267 -1.633
7639 3 57.678 61.219 -1.633
7640 3 57.678 59.314 -1.633
7641 1 59.648 60.267 0.000
7642 1 60.358 59.037 0.000
7643 1 61.779 59.037 0.000
7644 1 62.489 60.267 0.000
7645 1 63.909 60.267 0.000
7646 3 63.909 60.267 -1.100
7647 1 64.619 59.037 0.000
7648 1 66.039 59.037 0.000
7649 1 66.749 60.267 0.000
7650 1 68.170 60.267 0.000
7651 3 68.170 60.267 1.100
7652 1 68.880 59.037 0.000
7653 1 70.300 59.037 0.000
7654 1 71.010 60.267 0.000
7655 3 71.010 60.267 1.100
7656 1 72.430 60.267 0.000
7657 1 73.140 59.037 0.000
7658 1 74.561 59.037 0.000
7659 1 75.271 60.267 0.000
7660 1 76.691 60.267 0.000
7661 1 77.401 59.037 0.000
7662 1 78.821 59.037 0.000
7663 3 78.821 59.037 1.100
7664 1 79.531 60.267 0.000
7665 3 79.531 60.267 -1.100
7666 1 80.951 60.267 0.000
7667 1 81.662 59.037 0.000
7668 1 83.082 59.037 0.000
7669 1 83.792 60.267 0.000
7670 1 85.212 60.267 0.000
7671 1 85.922 59.037 0.000
7672 2 85.922 59.037 -1.500
7673 3 87.022 59.037 -1.633
7674 3 85.372 59.989 -1.633
7675 3 85.372 58.084 -1.633
7676 1 87.342 59.037 0.000
7677 1 88.052 60.267 0.000
7678 1 89.473 60.267 0.000
7679 1 90.183 59.037 0.000
7680 1 91.603 59.037 0.000
7681 1 92.313 60.267 0.000
7682 1 93.733 60.267 0.000
7683 1 94.443 59.037 0.000
7684 1 95.864 59.037 0.000
7685 2 95.864 59.037 -1.500
7686 3 96.964 59.037 -1.633
7687 3 95.314 59.989 -1.633
7688 3 95.314 58.084 -1.633
7689 1 96.574 60.267 0.000
7690 1 97.994 60.267 0.000
7691 1 98.704 59.037 0.000
7692 1 100.124 59.037 0.000
7693 1 100.834 60.267 0.000
7694 2 100.834 60.267 -1.500
7695 3 101.934 60.267 -1.633
7696 3 100.284 61.219 -1.633
7697 3 100.284 59.314 -1.633
7698 1 102.254 60.267 0.000
7699 1 102.965 59.037 0.000
7700 1 104.385 59.037 0.000
7701 1 105.095 60.267 0.000
7702 3 105.095 60.267 1.100
7703 1 106.515 60.267 0.000
7704 1 107.225 59.037 0.000
7705 1 108.645 59.037 0.000
7706 1 109.355 60.267 0.000
7707 1 110.776 60.267 0.000
7708 2 110.776 60.267 -1.500
7709 3 111.876 60.267 -1.633
7710 3 110.226 61.219 -1.633
7711 3 110.226 59.314 -1.633
7712 1 111.486 59.037 0.000
7713 1 112.906 59.037 0.000
7714 1 113.616 60.267 0.000
7715 1 115.036 60.267 0.000
7716 1 115.746 59.037 0.000
7717 1 117.167 59.037 0.000
7718 3 117.167 59.037 -1.100
7719 1 117.877 60.267 0.000
7720 1 119.297 60.267 0.000
7721 1 120.007 59.037 0.000
7722 1 121.427 59.037 0.000
7723 1 122.137 60.267 0.000
7724 1 123.557 60.267 0.000
7725 1 124.267 59.037 0.000
7726 2 124.267 59.037 1.500
7727 3 125.367 59.037 1.633
7728 3 123.718 59.989 1.633
7729 3 123.718 58.084 1.633
7730 1 125.688 59.037 0.000
7731 1 126.398 60.267 0.000
7732 1 127.818 60.267 0.000
7733 1 128.528 59.037 0.000
7734 1 129.948 59.037 0.000
7735 1 130.658 60.267 0.000
7736 2 130.658 60.267 1.500
7737 3 131.758 60.267 1.633
7738 3 130.108 61.219 1.633
7739 3 130.108 59.314 1.633
7740 1 132.079 60.267 0.000
7741 1 132.789 59.037 0.000
7742 1 134.209 59.037 0.000
7743 1 134.919 60.267 0.000
7744 1 136.339 60.267 0.000
7745 1 137.049 59.037 0.000
7746 2 137.049 59.037 1.500
7747 3 138.149 59.037 1.633
7748 3 136.499 59.989 1.633
7749 3 136.499 58.084 1.633
7750 1 138.470 59.037 0.000
7751 1 139.180 60.267 0.000
7752 3 139.180 60.267 -1.100
7753 1 140.600 60.267 0.000
7754 1 141.310 59.037 0.000
7755 1 142.730 59.037 0.000
7756 1 143.440 60.267 0.000
7757 1 144.860 60.267 0.000
7758 1 145.571 59.037 0.000
7759 1 146.991 59.037 0.000
7760 1 147.701 60.267 0.000
7761 2 147.701 60.267 -1.500
7762 3 148.801 60.267 -1.633
7763 3 147.151 61.219 -1.633
7764 3 147.151 59.314 -1.633
7765 1 149.121 60.267 0.000
7766 1 149.831 59.037 0.000
7767 1 151.251 59.037 0.000
7768 1 151.961 60.267 0.000
7769 1 153.382 60.267 0.000
7770 3 153.382 60.267 1.100
7771 1 154.092 59.037 0.000
7772 1 155.512 59.037 0.000
7773 1 156.222 60.267 0.000
7774 1 157.642 60.267 0.000
7775 1 158.352 59.037 0.000
7776 1 159.773 59.037 0.000
7777 2 159.773 59.037 1.500
7778 3 160.873 59.037 1.633
7779 3 159.222 59.989 1.633
7780 3 159.222 58.084 1.633
7781 1 160.483 60.267 0.000
7782 1 161.903 60.267 0.000
7783 1 162.613 59.037 0.000
7784 1 164.033 59.037 0.000
7785 3 164.033 59.037 -1.100
7786 1 164.743 60.267 0.000
7787 1 166.163 60.267 0.000
7788 1 166.874 59.037 0.000
7789 1 168.294 59.037 0.000
7790 1 169.004 60.267 0.000
7791 1 170.424 60.267 0.000
7792 1 171.134 59.037 0.000
7793 1 172.554 59.037 0.000
7794 1 173.264 60.267 0.000
7795 1 174.685 60.267 0.000
7796 1 175.395 59.037 0.000
7797 1 176.815 59.037 0.000
7798 1 177.525 60.267 0.000
7799 1 178.945 60.267 0.000
7800 1 179.655 59.037 0.000
7801 1 181.076 59.037 0.000
7802 1 181.786 60.267 0.000
7803 1 183.206 60.267 0.000
7804 1 183.916 59.037 0.000
7805 1 185.336 59.037 0.000
7806 1 186.046 60.267 0.000
7807 1 187.466 60.267 0.000
7808 1 188.177 59.037 0.000
7809 3 188.177 59.037 -1.100
7810 1 189.597 59.037 0.000
7811 1 190.307 60.267 0.000
7812 3 190.307 60.267 1.100
7813 1 191.727 60.267 0.000
7814 3 191.727 60.267 1.100
7815 1 192.437 59.037 0.000
7816 1 193.857 59.037 0.000
7817 1 194.567 60.267 0.000
7818 1 195.988 60.267 0.000
7819 1 196.698 59.037 0.000
7820 3 196.698 59.037 1.100
7821 1 198.118 59.037 0.000
7822 3 198.118 59.037 1.100
7823 1 198.828 60.267 0.000
7824 1 200.248 60.267 0.000
7825 1 200.958 59.037 0.000
7826 1 202.379 59.037 0.000
7827 3 202.379 59.037 1.100
7828 1 203.089 60.267 0.000
7829 1 204.509 60.267 0.000
7830 1 205.219 59.037 0.000
7831 1 206.639 59.037 0.000
7832 1 207.349 60.267 0.000
7833 2 207.349 60.267 -1.500
7834 3 208.449 60.267 -1.633
7835 3 206.799 61.219 -1.633
7836 3 206.799 59.314 -1.633
7837 1 208.769 60.267 0.000
7838 1 209.480 59.037 0.000
7839 1 210.900 59.037 0.000
7840 3 210.900 59.037 1.100
7841 1 211.610 60.267 0.000
7842 1 213.030 60.267 0.000
7843 1 213.740 59.037 0.000
7844 1 215.160 59.037 0.000
7845 1 215.870 60.267 0.000
7846 1 217.291 60.267 0.000
7847 1 218.001 59.037 0.000
7848 1 219.421 59.037 0.000
7849 1 220.131 60.267 0.000
7850 1 221.551 60.267 0.000
7851 1 222.261 59.037 0.000
7852 1 223.681 59.037 0.000
7853 1 224.392 60.267 0.000
7854 1 225.812 60.267 0.000
7855 3 225.812 60.267 1.100
7856 1 226.522 59.037 0.000
7857 3 226.522 59.037 1.100
7858 1 227.942 59.037 0.000
7859 3 227.942 59.037 1.100
7860 1 228.652 60.267 0.000
7861 1 230.072 60.267 0.000
7862 1 230.783 59.037 0.000
7863 1 232.203 59.037 0.000
7864 1 232.913 60.267 0.000
7865 1 234.333 60.267 0.000
7866 1 235.043 59.037 0.000
7867 1 236.463 59.037 0.000
7868 1 237.173 60.267 0.000
7869 1 238.594 60.267 0.000
7870 1 239.304 59.037 0.000
7871 1 240.724 59.037 0.000
7872 1 241.434 60.267 0.000
7873 1 242.854 60.267 0.000
7874 1 243.564 59.037 0.000
7875 1 244.985 59.037 0.000
7876 1 245.695 60.267 0.000
7877 1 247.115 60.267 0.000
7878 2 247.115 60.267 1.500
7879 3 248.215 60.267 1.633
7880 3 246.565 61.219 1.633
7881 3 246.565 59.314 1.633
7882 1 247.825 59.037 0.000
7883 1 249.245 59.037 0.000
7884 1 249.955 60.267 0.000
7885 1 0.000 62.726 0.000
7886 1 0.710 61.496 0.000
7887 1 2.130 61.496 0.000
7888 1 2.840 62.726 0.000
7889 1 4.261 62.726 0.000
7890 2 4.261 62.726 1.500
7891 3 5.361 62.726 1.633
7892 3 3.711 63.679 1.633
7893 3 3.711 61.774 1.633
7894 1 4.971 61.496 0.000
7895 1 6.391 61.496 0.000
7896 1 7.101 62.726 0.000
7897 1 8.521 62.726 0.000
7898 1 9.231 61.496 0.000
7899 2 9.231 61.496 -1.500
7900 3 10.331 61.496 -1.633
7901 3 8.681 62.449 -1.633
7902 3 8.681 60.544 -1.633
7903 1 10.652 61.496 0.000
7904 1 11.362 62.726 0.000
7905 1 12.782 62.726 0.000
7906 1 13.492 61.496 0.000
7907 1 14.912 61.496 0.000
7908 1 15.622 62.726 0.000
7909 1 17.042 62.726 0.000
7910 1 17.753 61.496 0.000
7911 1 19.173 61.496 0.000
7912 1 19.883 62.726 0.000
7913 1 21.303 62.726 0.000
7914 2 21.303 62.726 1.500
7915 3 22.403 62.726 1.633
7916 3 20.753 63.679 1.633
7917 3 20.753 61.774 1.633
7918 1 22.013 61.496 0.000
7919 1 23.433 61.496 0.000
7920 1 24.143 62.726 0.000
7921 1 25.564 62.726 0.000
7922 2 25.564 62.726 1.500
7923 3 26.664 62.726 1.633
7924 3 25.014 63.679 1.633
7925 3 25.014 61.774 1.633
7926 1 26.274 61.496 0.000
7927 1 27.694 61.496 0.000
7928 1 28.404 62.726 0.000
7929 1 29.824 62.726 0.000
7930 1 30.534 61.496 0.000
7931 1 31.954 61.496 0.000
7932 2 31.954 61.496 1.500
7933 3 33.054 61.496 1.633
7934 3 31.404 62.449 1.633
7935 3 31.404 60.544 1.633
7936 1 32.665 62.726 0.000
7937 1 34.085 62.726 0.000
7938 1 34.795 61.496 0.000
7939 1 36.215 61.496 0.000
7940 1 36.925 62.726 0.000
7941 1 38.345 62.726 0.000
7942 1 39.055 61.496 0.000
7943 2 39.055 61.496 1.500
7944 3 40.155 61.496 1.633
7945 3 38.505 62.449 1.633
7946 3 38.505 60.544 1.633
7947 1 40.476 61.496 0.000
7948 1 41.186 62.726 0.000
7949 1 42.606 62.726 0.000
7950 1 43.316 61.496 0.000
7951 2 43.316 61.496 -1.500
7952 3 44.416 61.496 -1.633
7953 3 42.766 62.449 -1.633
7954 3 42.766 60.544 -1.633
7955 1 44.736 61.496 0.000
7956 1 45.446 62.726 0.000
7957 1 46.867 62.726 0.000
7958 3 46.867 62.726 -1.100
7959 1 47.577 61.496 0.000
7960 1 48.997 61.496 0.000
7961 1 49.707 62.726 0.000
7962 1 51.127 62.726 0.000
7963 3 51.127 62.726 -1.100
7964 1 51.837 61.496 0.000
7965 1 53.258 61.496 0.000
7966 1 53.968 62.726 0.000
7967 1 55.388 62.726 0.000
7968 1 56.098 61.496 0.000
7969 1 57.518 61.496 0.000
7970 1 58.228 62.726 0.000
7971 1 59.648 62.726 0.000
7972 1 60.358 61.496 0.000
7973 1 61.779 61.496 0.000
7974 2 61.779 61.496 1.500
7975 3 62.879 61.496 1.633
7976 3 61.229 62.449 1.633
7977 3 61.229 60.544 1.633
7978 1 62.489 62.726 0.000
7979 1 63.909 62.726 0.000
7980 1 64.619 61.496 0.000
7981 1 66.039 61.496 0.000
7982 1 66.749 62.726 0.000
7983 1 68.170 62.726 0.000
7984 1 68.880 61.496 0.000
7985 1 70.300 61.496 0.000
7986 2 70.300 61.496 -1.500
7987 3 71.400 61.496 -1.633
7988 3 69.750 62.449 -1.633
7989 3 69.750 60.544 -1.633
7990 1 71.010 62.726 0.000
7991 1 72.430 62.726 0.000
7992 1 73.140 61.496 0.000
7993 3 73.140 61.496 1.100
7994 1 74.561 61.496 0.000
7995 1 75.271 62.726 0.000
7996 2 75.271 62.726 1.500
7997 3 76.371 62.726 1.633
7998 3 74.721 63.679 1.633
7999 3 74.721 61.774 1.633
8000 1 76.691 62.726 0.000
8001 1 77.401 61.496 0.000
8002 1 78.821 61.496 0.000
8003 1 79.531 62.726 0.000
8004 1 80.951 62.726 0.000
8005 1 81.662 61.496 0.000
8006 1 83.082 61.496 0.000
8007 1 83.792 62.726 0.000
8008 1 85.212 62.726 0.000
8009 2 85.212 62.726 -1.500
8010 3 86.312 62.726 -1.633
8011 3 84.662 63.679 -1.633
8012 3 84.662 61.774 -1.633
8013 1 85.922 61.496 0.000
8014 1 87.342 61.496 0.000
8015 3 87.342 61.496 1.100
8016 1 88.052 62.726 0.000
8017 1 89.473 62.726 0.000
8018 1 90.183 61.496 0.000
8019 1 91.603 61.496 0.000
8020 1 92.313 62.726 0.000
8021 1 93.733 62.726 0.000
8022 1 94.443 61.496 0.000
8023 1 95.864 61.496 0.000
8024 3 95.864 61.496 -1.100
8025 1 96.574 62.726 0.000
8026 1 97.994 62.726 0.000
8027 1 98.704 61.496 0.000
8028 1 100.124 61.496 0.000
8029 3 100.124 61.496 1.100
8030 1 100.834 62.726 0.000
8031 1 102.254 62.726 0.000
8032 3 102.254 62.726 -1.100
8033 1 102.965 61.496 0.000
8034 3 102.965 61.496 1.100
8035 1 104.385 61.496 0.000
8036 3 104.385 61.496 1.100
8037 1 105.095 62.726 0.000
8038 1 106.515 62.726 0.000
8039 2 106.515 62.726 1.500
8040 3 107.615 62.726 1.633
8041 3 105.965 63.679 1.633
8042 3 105.965 61.774 1.633
8043 1 107.225 61.496 0.000
8044 3 107.225 61.496 -1.100
8045 1 108.645 61.496 0.000
8046 1 109.355 62.726 0.000
8047 1 110.776 62.726 0.000
8048 1 111.486 61.496 0.000
8049 1 112.906 61.496 0.000
8050 1 113.616 62.726 0.000
8051 1 115.036 62.726 0.000
8052 1 115.746 61.496 0.000
8053 1 117.167 61.496 0.000
8054 1 117.877 62.726 0.000
8055 3 117.877 62.726 -1.100
8056 1 119.297 62.726 0.000
8057 1 120.007 61.496 0.000
8058 1 121.427 61.496 0.000
8059 1 122.137 62.726 0.000
8060 1 123.557 62.726 0.000
8061 1 124.267 61.496 0.000
8062 1 125.688 61.496 0.000
8063 1 126.398 62.726 0.000
8064 1 127.818 62.726 0.000
8065 1 128.528 61.496 0.000
8066 1 129.948 61.496 0.000
8067 3 129.948 61.496 -1.100
8068 1 130.658 62.726 0.000
8069 1 132.079 62.726 0.000
8070 1 132.789 61.496 0.000
8071 1 134.209 61.496 0.000
8072 1 134.919 62.726 0.000
8073 1 136.339 62.726 0.000
8074 1 137.049 61.496 0.000
8075 1 138.470 61.496 0.000
8076 1 139.180 62.726 0.000
8077 1 140.600 62.726 0.000
8078 1 141.310 61.496 0.000
8079 1 142.730 61.496 0.000
8080 1 143.440 62.726 0.000
8081 1 144.860 62.726 0.000
8082 3 144.860 62.726 -1.100
8083 1 145.571 61.496 0.000
8084 3 145.571 61.496 -1.100
8085 1 146.991 61.496 0.000
8086 1 147.701 62.726 0.000
8087 1 149.121 62.726 0.000
8088 1 149.831 61.496 0.000
8089 1 151.251 61.496 0.000
8090 1 151.961 62.726 0.000
8091 1 153.382 62.726 0.000
8092 1 154.092 61.496 0.000
8093 1 155.512 61.496 0.000
8094 1 156.222 62.726 0.000
8095 1 157.642 62.726 0.000
8096 1 158.352 61.496 0.000
8097 1 159.773 61.496 0.000
8098 3 159.773 61.496 1.100
8099 1 160.483 62.726 0.000
8100 1 161.903 62.726 0.000
8101 3 161.903 62.726 -1.100
8102 1 162.613 61.496 0.000
8103 2 162.613 61.496 1.500
8104 3 163.713 61.496 1.633
8105 3 162.063 62.449 1.633
8106 3 162.063 60.544 1.633
8107 1 164.033 61.496 0.000
8108 1 164.743 62.726 0.000
8109 1 166.163 62.726 0.000
8110 3 166.163 62.726 1.100
8111 1 166.874 61.496 0.000
8112 1 168.294 61.496 0.000
8113 1 169.004 62.726 0.000
8114 1 170.424 62.726 0.000
8115 1 171.134 61.496 0.000
8116 3 171.134 61.496 -1.100
8117 1 172.554 61.496 0.000
8118 1 173.264 62.726 0.000
8119 3 173.264 62.726 -1.100
8120 1 174.685 62.726 0.000
8121 1 175.395 61.496 0.000
8122 1 176.815 61.496 0.000
8123 1 177.525 62.726 0.000
8124 2 177.525 62.726 -1.500
8125 3 178.625 62.726 -1.633
8126 3 176.975 63.679 -1.633
8127 3 176.975 61.774 -1.633
8128 1 178.945 62.726 0.000
8129 1 179.655 61.496 0.000
8130 1 181.076 61.496 0.000
8131 1 181.786 62.726 0.000
8132 2 181.786 62.726 1.500
8133 3 182.886 62.726 1.633
8134 3 181.236 63.679 1.633
8135 3 181.236 61.774 1.633
8136 1 183.206 62.726 0.000
8137 1 183.916 61.496 0.000
8138 1 185.336 61.496 0.000
8139 1 186.046 62.726 0.000
8140 1 187.466 62.726 0.000
8141 1 188.177 61.496 0.000
8142 1 189.597 61.496 0.000
8143 1 190.307 62.726 0.000
8144 1 191.727 62.726 0.000
8145 1 192.437 61.496 0.000
8146 1 193.857 61.496 0.000
8147 1 194.567 62.726 0.000
8148 1 195.988 62.726 0.000
8149 2 195.988 62.726 -1.500
8150 3 197.088 62.726 -1.633
8151 3 195.438 63.679 -1.633
8152 3 195.438 61.774 -1.633
8153 1 196.698 61.496 0.000
8154 1 198.118 61.496 0.000
8155 1 198.828 62.726 0.000
8156 1 200.248 62.726 0.000
8157 1 200.958 61.496 0.000
8158 2 200.958 61.496 -1.500
8159 3 202.058 61.496 -1.633
8160 3 200.408 62.449 -1.633
8161 3 200.408 60.544 -1.633
8162 1 202.379 61.496 0.000
8163 1 203.089 62.726 0.000
8164 1 204.509 62.726 0.000
8165 1 205.219 61.496 0.000
8166 1 206.639 61.496 0.000
8167 1 207.349 62.726 0.000
8168 1 208.769 62.726 0.000
8169 1 209.480 61.496 0.000
8170 1 210.900 61.496 0.000
8171 3 210.900 61.496 -1.100
8172 1 211.610 62.726 0.000
8173 1 213.030 62.726 0.000
8174 3 213.030 62.726 -1.100
8175 1 213.740 61.496 0.000
8176 1 215.160 61.496 0.000
8177 1 215.870 62.726 0.000
8178 1 217.291 62.726 0.000
8179 1 218.001 61.496 0.000
8180 1 219.421 61.496 0.000
8181 1 220.131 62.726 0.000
8182 1 221.551 62.726 0.000
8183 3 221.551 62.726 1.100
8184 1 222.261 61.496 0.000
8185 1 223.681 61.496 0.000
8186 1 224.392 62.726 0.000
8187 1 225.812 62.726 0.000
8188 1 226.522 61.496 0.000
8189 1 227.942 61.496 0.000
8190 1 228.652 62.726 0.000
8191 1 230.072 62.726 0.000
8192 1 230.783 61.496 0.000
8193 1 232.203 61.496 0.000
8194 1 232.913 62.726 0.000
8195 1 234.333 62.726 0.000
8196 1 235.043 61.496 0.000
8197 1 236.463 61.496 0.000
8198 1 237.173 62.726 0.000
8199 1 238.594 62.726 0.000
8200 2 238.594 62.726 1.500
8201 3 239.694 62.726 1.633
8202 3 238.044 63.679 1.633
8203 3 238.044 61.774 1.633
8204 1 239.304 61.496 0.000
8205 1 240.724 61.496 0.000
8206 1 241.434 62.726 0.000
8207 1 242.854 62.726 0.000
8208 3 242.854 62.726 1.100
8209 1 243.564 61.496 0.000
8210 1 244.985 61.496 0.000
8211 1 245.695 62.726 0.000
8212 2 245.695 62.726 -1.500
8213 3 246.795 62.726 -1.633
8214 3 245.145 63.679 -1.633
8215 3 245.145 61.774 -1.633
8216 1 247.115 62.726 0.000
8217 1 247.825 61.496 0.000
8218 1 249.245 61.496 0.000
8219 1 249.955 62.726 0.000
8220 1 0.000 65.186 0.000
8221 1 0.710 63.956 0.000
8222 2 0.710 63.956 -1.500
8223 3 1.810 63.956 -1.633
8224 3 0.160 64.909 -1.633
8225 3 0.160 63.004 -1.633
8226 1 2.130 63.956 0.000
8227 1 2.840 65.186 0.000
8228 1 4.261 65.186 0.000
8229 1 4.971 63.956 0.000
8230 1 6.391 63.956 0.000
8231 1 7.101 65.186 0.000
8232 1 8.521 65.186 0.000
8233 1 9.231 63.956 0.000
8234 1 10.652 63.956 0.000
8235 1 11.362 65.186 0.000
8236 1 12.782 65.186 0.000
8237 1 13.492 63.956 0.000
8238 1 14.912 63.956 0.000
8239 1 15.622 65.186 0.000
8240 1 17.042 65.186 0.000
8241 1 17.753 63.956 0.000
8242 1 19.173 63.956 0.000
8243 1 19.883 65.186 0.000
8244 1 21.303 65.186 0.000
8245 1 22.013 63.956 0.000
8246 1 23.433 63.956 0.000
8247 1 24.143 65.186 0.000
8248 1 25.564 65.186 0.000
8249 1 26.274 63.956 0.000
8250 1 27.694 63.956 0.000
8251 1 28.404 65.186 0.000
8252 2 28.404 65.186 -1.500
8253 3 29.504 65.186 -1.633
8254 3 27.854 66.139 -1.633
8255 3 27.854 64.234 -1.633
8256 1 29.824 65.186 0.000
8257 1 30.534 63.956 0.000
8258 1 31.954 63.956 0.000
8259 1 32.665 65.186 0.000
8260 2 32.665 65.186 -1.500
8261 3 33.765 65.186 -1.633
8262 3 32.115 66.139 -1.633
8263 3 32.115 64.234 -1.633
8264 1 34.085 65.186 0.000
8265 1 34.795 63.956 0.000
8266 1 36.215 63.956 0.000
8267 1 36.925 65.186 0.000
8268 2 36.925 65.186 -1.500
8269 3 38.025 65.186 -1.633
8270 3 36.375 66.139 -1.633
8271 3 36.375 64.234 -1.633
8272 1 38.345 65.186 0.000
8273 1 39.055 63.956 0.000
8274 1 40.476 63.956 0.000
8275 1 41.186 65.186 0.000
8276 3 41.186 65.186 -1.100
8277 1 42.606 65.186 0.000
8278 1 43.316 63.956 0.000
8279 1 44.736 63.956 0.000
8280 1 45.446 65.186 0.000
8281 1 46.867 65.186 0.000
8282 1 47.577 63.956 0.000
8283 2 47.577 63.956 1.500
8284 3 48.677 63.956 1.633
8285 3 47.027 64.909 1.633
8286 3 47.027 63.004 1.633
8287 1 48.997 63.956 0.000
8288 1 49.707 65.186 0.000
8289 1 51.127 65.186 0.000
8290 1 51.837 63.956 0.000
8291 2 51.837 63.956 1.500
8292 3 52.937 63.956 1.633
8293 3 51.287 64.909 1.633
8294 3 51.287 63.004 1.633
8295 1 53.258 63.956 0.000
8296 1 53.968 65.186 0.000
8297 1 55.388 65.186 0.000
8298 1 56.098 63.956 0.000
8299 3 56.098 63.956 -1.100
8300 1 57.518 63.956 0.000
8301 1 58.228 65.186 0.000
8302 3 58.228 65.186 1.100
8303 1 59.648 65.186 0.000
8304 1 60.358 63.956 0.000
8305 1 61.779 63.956 0.000
8306 1 62.489 65.186 0.000
8307 2 62.489 65.186 1.500
8308 3 63.589 65.186 1.633
8309 3 61.939 66.139 1.633
8310 3 61.939 64.234 1.633
8311 1 63.909 65.186 0.000
8312 1 64.619 63.956 0.000
8313 1 66.039 63.956 0.000
8314 1 66.749 65.186 0.000
8315 1 68.170 65.186 0.000
8316 3 68.170 65.186 -1.100
8317 1 68.880 63.956 0.000
8318 1 70.300 63.956 0.000
8319 3 70.300 63.956 -1.100
8320 1 71.010 65.186 0.000
8321 1 72.430 65.186 0.000
8322 1 73.140 63.956 0.000
8323 1 74.561 63.956 0.000
8324 1 75.271 65.186 0.000
8325 1 76.691 65.186 0.000
8326 1 77.401 63.956 0.000
8327 1 78.821 63.956 0.000
8328 1 79.531 65.186 0.000
8329 1 80.951 65.186 0.000
8330 1 81.662 63.956 0.000
8331 1 83.082 63.956 0.000
8332 1 83.792 65.186 0.000
8333 1 85.212 65.186 0.000
8334 2 85.212 65.186 1.500
8335 3 86.312 65.186 1.633
8336 3 84.662 66.139 1.633
8337 3 84.662 64.234 1.633
8338 1 85.922 63.956 0.000
8339 1 87.342 63.956 0.000
8340 1 88.052 65.186 0.000
8341 1 89.473 65.186 0.000
8342 1 90.183 63.956 0.000
8343 1 91.603 63.956 0.000
8344 1 92.313 65.186 0.000
8345 1 93.733 65.186 0.000
8346 3 93.733 65.186 1.100
8347 1 94.443 63.956 0.000
8348 1 95.864 63.956 0.000
8349 1 96.574 65.186 0.000
8350 1 97.994 65.186 0.000
8351 1 98.704 63.956 0.000
8352 3 98.704 63.956 -1.100
8353 1 100.124 63.956 0.000
8354 1 100.834 65.186 0.000
8355 1 102.254 65.186 0.000
8356 1 102.965 63.956 0.000
8357 1 104.385 63.956 0.000
8358 1 105.095 65.186 0.000
8359 1 106.515 65.186 0.000
8360 1 107.225 63.956 0.000
8361 1 108.645 63.956 0.000
8362 1 109.355 65.186 0.000
8363 1 110.776 65.186 0.000
8364 3 110.776 65.186 1.100
8365 1 111.486 63.956 0.000
8366 1 112.906 63.956 0.000
8367 1 113.616 65.186 0.000
8368 1 115.036 65.186 0.000
8369 1 115.746 63.956 0.000
8370 1 117.167 63.956 0.000
8371 1 117.877 65.186 0.000
8372 1 119.297 65.186 0.000
8373 1 120.007 63.956 0.000
8374 1 121.427 63.956 0.000
8375 1 122.137 65.186 0.000
8376 1 123.557 65.186 0.000
8377 1 124.267 63.956 0.000
8378 1 125.688 63.956 0.000
8379 1 126.398 65.186 0.000
8380 1 127.818 65.186 0.000
8381 3 127.818 65.186 -1.100
8382 1 128.528 63.956 0.000
8383 1 129.948 63.956 0.000
8384 1 130.658 65.186 0.000
8385 1 132.079 65.186 0.000
8386 1 132.789 63.956 0.000
8387 1 134.209 63.956 0.000
8388 1 134.919 65.186 0.000
8389 1 136.339 65.186 0.000
8390 1 137.049 63.956 0.000
8391 1 138.470 63.956 0.000
8392 1 139.180 65.186 0.000
8393 1 140.600 65.186 0.000
8394 1 141.310 63.956 0.000
8395 1 142.730 63.956 0.000
8396 3 142.730 63.956 -1.100
8397 1 143.440 65.186 0.000
8398 1 144.860 65.186 0.000
8399 1 145.571 63.956 0.000
8400 1 146.991 63.956 0.000
8401 1 147.701 65.186 0.000
8402 1 149.121 65.186 0.000
8403 1 149.831 63.956 0.000
8404 1 151.251 63.956 0.000
8405 1 151.961 65.186 0.000
8406 1 153.382 65.186 0.000
8407 1 154.092 63.956 0.000
8408 1 155.512 63.956 0.000
8409 1 156.222 65.186 0.000
8410 1 157.642 65.186 0.000
8411 1 158.352 63.956 0.000
8412 2 158.352 63.956 1.500
8413 3 159.452 63.956 1.633
8414 3 157.802 64.909 1.633
8415 3 157.802 63.004 1.633
8416 1 159.773 63.956 0.000
8417 1 160.483 65.186 0.000
8418 3 160.483 65.186 1.100
8419 1 161.903 65.186 0.000
8420 1 162.613 63.956 0.000
8421 1 164.033 63.956 0.000
8422 1 164.743 65.186 0.000
8423 1 166.163 65.186 0.000
8424 1 166.874 63.956 0.000
8425 1 168.294 63.956 0.000
8426 1 169.004 65.186 0.000
8427 1 170.424 65.186 0.000
8428 1 171.134 63.956 0.000
8429 1 172.554 63.956 0.000
8430 1 173.264 65.186 0.000
8431 1 174.685 65.186 0.000
8432 3 174.685 65.186 -1.100
8433 1 175.395 63.956 0.000
8434 1 176.815 63.956 0.000
8435 1 177.525 65.186 0.000
8436 1 178.945 65.186 0.000
8437 1 179.655 63.956 0.000
8438 1 181.076 63.956 0.000
8439 1 181.786 65.186 0.000
8440 1 183.206 65.186 0.000
8441 1 183.916 63.956 0.000
8442 1 185.336 63.956 0.000
8443 1 186.046 65.186 0.000
8444 1 187.466 65.186 0.000
8445 1 188.177 63.956 0.000
8446 1 189.597 63.956 0.000
8447 3 189.597 63.956 1.100
8448 1 190.307 65.186 0.000
8449 1 191.727 65.186 0.000
8450 1 192.437 63.956 0.000
8451 1 193.857 63.956 0.000
8452 1 194.567 65.186 0.000
8453 2 194.567 65.186 1.500
8454 3 195.667 65.186 1.633
8455 3 194.017 66.139 1.633
8456 3 194.017 64.234 1.633
8457 1 195.988 65.186 0.000
8458 1 196.698 63.956 0.000
8459 1 198.118 63.956 0.000
8460 1 198.828 65.186 0.000
8461 1 200.248 65.186 0.000
8462 1 200.958 63.956 0.000
8463 1 202.379 63.956 0.000
8464 2 202.379 63.956 1.500
8465 3 203.478 63.956 1.633
8466 3 201.828 64.909 1.633
8467 3 201.828 63.004 1.633
8468 1 203.089 65.186 0.000
8469 1 204.509 65.186 0.000
8470 1 205.219 63.956 0.000
8471 1 206.639 63.956 0.000
8472 1 207.349 65.186 0.000
8473 3 207.349 65.186 -1.100
8474 1 208.769 65.186 0.000
8475 1 209.480 63.956 0.000
8476 1 210.900 63.956 0.000
8477 1 211.610 65.186 0.000
8478 3 211.610 65.186 1.100
8479 1 213.030 65.186 0.000
8480 1 213.740 63.956 0.000
8481 1 215.160 63.956 0.000
8482 1 215.870 65.186 0.000
8483 1 217.291 65.186 0.000
8484 1 218.001 63.956 0.000
8485 1 219.421 63.956 0.000
8486 1 220.131 65.186 0.000
8487 1 221.551 65.186 0.000
8488 1 222.261 63.956 0.000
8489 3 222.261 63.956 1.100
8490 1 223.681 63.956 0.000
8491 1 224.392 65.186 0.000
8492 1 225.812 65.186 0.000
8493 1 226.522 63.956 0.000
8494 1 227.942 63.956 0.000
8495 1 228.652 65.186 0.000
8496 3 228.652 65.186 1.100
8497 1 230.072 65.186 0.000
8498 1 230.783 63.956 0.000
8499 1 232.203 63.956 0.000
8500 1 232.913 65.186 0.000
8501 1 234.333 65.186 0.000
8502 2 234.333 65.186 1.500
8503 3 235.433 65.186 1.633
8504 3 233.783 66.139 1.633
8505 3 233.783 64.234 1.633
8506 1 235.043 63.956 0.000
8507 1 236.463 63.956 0.000
8508 3 236.463 63.956 -1.100
8509 1 237.173 65.186 0.000
8510 1 238.594 65.186 0.000
8511 3 238.594 65.186 -1.100
8512 1 239.304 63.956 0.000
8513 1 240.724 63.956 0.000
8514 1 241.434 65.186 0.000
8515 1 242.854 65.186 0.000
8516 2 242.854 65.186 -1.500
8517 3 243.954 65.186 -1.633
8518 3 242.304 66.139 -1.633
8519 3 242.304 64.234 -1.633
8520 1 243.564 63.956 0.000
8521 1 244.985 63.956 0.000
8522 1 245.695 65.186 0.000
8523 1 247.115 65.186 0.000
8524 1 247.825 63.956 0.000
8525 3 247.825 63.956 1.100
8526 1 249.245 63.956 0.000
8527 1 249.955 65.186 0.000
8528 1 0.000 67.646 0.000
8529 1 0.710 66.416 0.000
8530 1 2.130 66.416 0.000
8531 1 2.840 67.646 0.000
8532 1 4.261 67.646 0.000
8533 2 4.261 67.646 1.500
8534 3 5.361 67.646 1.633
8535 3 3.711 68.599 1.633
8536 3 3.711 66.693 1.633
8537 1 4.971 66.416 0.000
8538 1 6.391 66.416 0.000
8539 1 7.101 67.646 0.000
8540 1 8.521 67.646 0.000
8541 1 9.231 66.416 0.000
8542 1 10.652 66.416 0.000
8543 1 11.362 67.646 0.000
8544 1 12.782 67.646 0.000
8545 1 13.492 66.416 0.000
8546 1 14.912 66.416 0.000
8547 1 15.622 67.646 0.000
8548 1 17.042 67.646 0.000
8549 1 17.753 66.416 0.000
8550 1 19.173 66.416 0.000
8551 3 19.173 66.416 -1.100
8552 1 19.883 67.646 0.000
8553 1 21.303 67.646 0.000
8554 3 21.303 67.646 -1.100
8555 1 22.013 66.416 0.000
8556 1 23.433 66.416 0.000
8557 1 24.143 67.646 0.000
8558 1 25.564 67.646 0.000
8559 1 26.274 66.416 0.000
8560 1 27.694 66.416 0.000
8561 1 28.404 67.646 0.000
8562 1 29.824 67.646 0.000
8563 1 30.534 66.416 0.000
8564 3 30.534 66.416 -1.100
8565 1 31.954 66.416 0.000
8566 1 32.665 67.646 0.000
8567 1 34.085 67.646 0.000
8568 1 34.795 66.416 0.000
8569 1 36.215 66.416 0.000
8570 1 36.925 67.646 0.000
8571 1 38.345 67.646 0.000
8572 1 39.055 66.416 0.000
8573 1 40.476 66.416 0.000
8574 1 41.186 67.646 0.000
8575 1 42.606 67.646 0.000
8576 1 43.316 66.416 0.000
8577 2 43.316 66.416 1.500
8578 3 44.416 66.416 1.633
8579 3 42.766 67.369 1.633
8580 3 42.766 65.464 1.633
8581 1 44.736 66.416 0.000
8582 1 45.446 67.646 0.000
8583 1 46.867 67.646 0.000
8584 1 47.577 66.416 0.000
8585 3 47.577 66.416 -1.100
8586 1 48.997 66.416 0.000
8587 1 49.707 67.646 0.000
8588 1 51.127 67.646 0.000
8589 1 51.837 66.416 0.000
8590 1 53.258 66.416 0.000
8591 1 53.968 67.646 0.000
8592 1 55.388 67.646 0.000
8593 1 56.098 66.416 0.000
8594 1 57.518 66.416 0.000
8595 1 58.228 67.646 0.000
8596 1 59.648 67.646 0.000
8597 1 60.358 66.416 0.000
8598 2 60.358 66.416 -1.500
8599 3 61.459 66.416 -1.633
8600 3 59.809 67.369 -1.633
8601 3 59.809 65.464 -1.633
8602 1 61.779 66.416 0.000
8603 1 62.489 67.646 0.000
8604 1 63.909 67.646 0.000
8605 1 64.619 66.416 0.000
8606 1 66.039 66.416 0.000
8607 1 66.749 67.646 0.000
8608 1 68.170 67.646 0.000
8609 3 68.170 67.646 1.100
8610 1 68.880 66.416 0.000
8611 1 70.300 66.416 0.000
8612 1 71.010 67.646 0.000
8613 1 72.430 67.646 0.000
8614 1 73.140 66.416 0.000
8615 1 74.561 66.416 0.000
8616 1 75.271 67.646 0.000
8617 1 76.691 67.646 0.000
8618 1 77.401 66.416 0.000
8619 1 78.821 66.416 0.000
8620 1 79.531 67.646 0.000
8621 1 80.951 67.646 0.000
8622 1 81.662 66.416 0.000
8623 1 83.082 66.416 0.000
8624 1 83.792 67.646 0.000
8625 1 85.212 67.646 0.000
8626 1 85.922 66.416 0.000
8627 1 87.342 66.416 0.000
8628 1 88.052 67.646 0.000
8629 1 89.473 67.646 0.000
8630 1 90.183 66.416 0.000
8631 1 91.603 66.416 0.000
8632 1 92.313 67.646 0.000
8633 1 93.733 67.646 0.000
8634 1 94.443 66.416 0.000
8635 1 95.864 66.416 0.000
8636 1 96.574 67.646 0.000
8637 3 96.574 67.646 -1.100
8638 1 97.994 67.646 0.000
8639 2 97.994 67.646 1.500
8640 3 99.094 67.646 1.633
8641 3 97.444 68.599 1.633
8642 3 97.444 66.693 1.633
8643 1 98.704 66.416 0.000
8644 1 100.124 66.416 0.000
8645 1 100.834 67.646 0.000
8646 1 102.254 67.646 0.000
8647 1 102.965 66.416 0.000
8648 1 104.385 66.416 0.000
8649 1 105.095 67.646 0.000
8650 1 106.515 67.646 0.000
8651 1 107.225 66.416 0.000
8652 1 108.645 66.416 0.000
8653 1 109.355 67.646 0.000
8654 1 110.776 67.646 0.000
8655 1 111.486 66.416 0.000
8656 1 112.906 66.416 0.000
8657 3 112.906 66.416 1.100
8658 1 113.616 67.646 0.000
8659 1 115.036 67.646 0.000
8660 1 115.746 66.416 0.000
8661 1 117.167 66.416 0.000
8662 1 117.877 67.646 0.000
8663 1 119.297 67.646 0.000
8664 3 119.297 67.646 1.100
8665 1 120.007 66.416 0.000
8666 1 121.427 66.416 0.000
8667 1 122.137 67.646 0.000
8668 1 123.557 67.646 0.000
8669 1 124.267 66.416 0.000
8670 1 125.688 66.416 0.000
8671 1 126.398 67.646 0.000
8672 1 127.818 67.646 0.000
8673 3 127.818 67.646 -1.100
8674 1 128.528 66.416 0.000
8675 1 129.948 66.416 0.000
8676 1 130.658 67.646 0.000
8677 1 132.079 67.646 0.000
8678 1 132.789 66.416 0.000
8679 1 134.209 66.416 0.000
8680 3 134.209 66.416 -1.100
8681 1 134.919 67.646 0.000
8682 3 134.919 67.646 -1.100
8683 1 136.339 67.646 0.000
8684 1 137.049 66.416 0.000
8685 1 138.470 66.416 0.000
8686 1 139.180 67.646 0.000
8687 3 139.180 67.646 -1.100
8688 1 140.600 67.646 0.000
8689 1 141.310 66.416 0.000
8690 1 142.730 66.416 0.000
8691 1 143.440 67.646 0.000
8692 2 143.440 67.646 -1.500
8693 3 144.540 67.646 -1.633
8694 3 142.890 68.599 -1.633
8695 3 142.890 66.693 -1.633
8696 1 144.860 67.646 0.000
8697 1 145.571 66.416 0.000
8698 1 146.991 66.416 0.000
8699 1 147.701 67.646 0.000
8700 1 149.121 67.646 0.000
8701 1 149.831 66.416 0.000
8702 1 151.251 66.416 0.000
8703 1 151.961 67.646 0.000
8704 2 151.961 67.646 1.500
8705 3 153.061 67.646 1.633
8706 3 151.411 68.599 1.633
8707 3 151.411 66.693 1.633
8708 1 153.382 67.646 0.000
8709 1 154.092 66.416 0.000
8710 1 155.512 66.416 0.000
8711 3 155.512 66.416 1.100
8712 1 156.222 67.646 0.000
8713 1 157.642 67.646 0.000
8714 1 158.352 66.416 0.000
8715 1 159.773 66.416 0.000
8716 1 160.483 67.646 0.000
8717 1 161.903 67.646 0.000
8718 1 162.613 66.416 0.000
8719 1 164.033 66.416 0.000
8720 1 164.743 67.646 0.000
8721 3 164.743 67.646 1.100
8722 1 166.163 67.646 0.000
8723 1 166.874 66.416 0.000
8724 1 168.294 66.416 0.000
8725 1 169.004 67.646 0.000
8726 1 170.424 67.646 0.000
8727 1 171.134 66.416 0.000
8728 1 172.554 66.416 0.000
8729 1 173.264 67.646 0.000
8730 3 173.264 67.646 1.100
8731 1 174.685 67.646 0.000
8732 1 175.395 66.416 0.000
8733 1 176.815 66.416 0.000
8734 1 177.525 67.646 0.000
8735 1 178.945 67.646 0.000
8736 3 178.945 67.646 1.100
8737 1 179.655 66.416 0.000
8738 1 181.076 66.416 0.000
8739 1 181.786 67.646 0.000
8740 1 183.206 67.646 0.000
8741 1 183.916 66.416 0.000
8742 1 185.336 66.416 0.000
8743 1 186.046 67.646 0.000
8744 1 187.466 67.646 0.000
8745 3 187.466 67.646 -1.100
8746 1 188.177 66.416 0.000
8747 1 189.597 66.416 0.000
8748 2 189.597 66.416 1.500
8749 3 190.697 66.416 1.633
8750 3 189.047 67.369 1.633
8751 3 189.047 65.464 1.633
8752 1 190.307 67.646 0.000
8753 1 191.727 67.646 0.000
8754 1 192.437 66.416 0.000
8755 1 193.857 66.416 0.000
8756 1 194.567 67.646 0.000
8757 1 195.988 67.646 0.000
8758 3 195.988 67.646 -1.100
8759 1 196.698 66.416 0.000
8760 1 198.118 66.416 0.000
8761 1 198.828 67.646 0.000
8762 1 200.248 67.646 0.000
8763 1 200.958 66.416 0.000
8764 1 202.379 66.416 0.000
8765 1 203.089 67.646 0.000
8766 3 203.089 67.646 1.100
8767 1 204.509 67.646 0.000
8768 1 205.219 66.416 0.000
8769 1 206.639 66.416 0.000
8770 1 207.349 67.646 0.000
8771 1 208.769 67.646 0.000
8772 1 209.480 66.416 0.000
8773 1 210.900 66.416 0.000
8774 1 211.610 67.646 0.000
8775 1 213.030 67.646 0.000
8776 1 213.740 66.416 0.000
8777 3 213.740 66.416 1.100
8778 1 215.160 66.416 0.000
8779 1 215.870 67.646 0.000
8780 1 217.291 67.646 0.000
8781 1 218.001 66.416 0.000
8782 1 219.421 66.416 0.000
8783 1 220.131 67.646 0.000
8784 1 221.551 67.646 0.000
8785 1 222.261 66.416 0.000
8786 1 223.681 66.416 0.000
8787 1 224.392 67.646 0.000
8788 2 224.392 67.646 -1.500
8789 3 225.492 67.646 -1.633
8790 3 223.842 68.599 -1.633
8791 3 223.842 66.693 -1.633
8792 1 225.812 67.646 0.000
8793 1 226.522 66.416 0.000
8794 1 227.942 66.416 0.000
8795 1 228.652 67.646 0.000
8796 1 230.072 67.646 0.000
8797 1 230.783 66.416 0.000
8798 1 232.203 66.416 0.000
8799 1 232.913 67.646 0.000
8800 1 234.333 67.646 0.000
8801 1 235.043 66.416 0.000
8802 3 235.043 66.416 -1.100
8803 1 236.463 66.416 0.000
8804 1 237.173 67.646 0.000
8805 1 238.594 67.646 0.000
8806 1 239.304 66.416 0.000
8807 1 240.724 66.416 0.000
8808 1 241.434 67.646 0.000
8809 1 242.854 67.646 0.000
8810 1 243.564 66.416 0.000
8811 1 244.985 66.416 0.000
8812 1 245.695 67.646 0.000
8813 1 247.115 67.646 0.000
8814 1 247.825 66.416 0.000
8815 3 247.825 66.416 -1.100
8816 1 249.245 66.416 0.000
8817 1 249.955 67.646 0.000
8818 1 0.000 70.106 0.000
8819 1 0.710 68.876 0.000
8820 2 0.710 68.876 1.500
8821 3 1.810 68.876 1.633
8822 3 0.160 69.829 1.633
8823 3 0.160 67.923 1.633
8824 1 2.130 68.876 0.000
8825 1 2.840 70.106 0.000
8826 1 4.261 70.106 0.000
8827 1 4.971 68.876 0.000
8828 1 6.391 68.876 0.000
8829 3 6.391 68.876 -1.100
8830 1 7.101 70.106 0.000
8831 1 8.521 70.106 0.000
8832 3 8.521 70.106 -1.100
8833 1 9.231 68.876 0.000
8834 1 10.652 68.876 0.000
8835 1 11.362 70.106 0.000
8836 1 12.782 70.106 0.000
8837 1 13.492 68.876 0.000
8838 1 14.912 68.876 0.000
8839 1 15.622 70.106 0.000
8840 1 17.042 70.106 0.000
8841 1 17.753 68.876 0.000
8842 1 19.173 68.876 0.000
8843 1 19.883 70.106 0.000
8844 1 21.303 70.106 0.000
8845 1 22.013 68.876 0.000
8846 1 23.433 68.876 0.000
8847 1 24.143 70.106 0.000
8848 2 24.143 70.106 -1.500
8849 3 25.243 70.106 -1.633
8850 3 23.593 71.059 -1.633
8851 3 23.593 69.153 -1.633
8852 1 25.564 70.106 0.000
8853 1 26.274 68.876 0.000
8854 1 27.694 68.876 0.000
8855 1 28.404 70.106 0.000
8856 1 29.824 70.106 0.000
8857 1 30.534 68.876 0.000
8858 1 31.954 68.876 0.000
8859 1 32.665 70.106 0.000
8860 2 32.665 70.106 1.500
8861 3 33.765 70.106 1.633
8862 3 32.115 71.059 1.633
8863 3 32.115 69.153 1.633
8864 1 34.085 70.106 0.000
8865 3 34.085 70.106 -1.100
8866 1 34.795 68.876 0.000
8867 1 36.215 68.876 0.000
8868 3 36.215 68.876 1.100
8869 1 36.925 70.106 0.000
8870 1 38.345 70.106 0.000
8871 1 39.055 68.876 0.000
8872 1 40.476 68.876 0.000
8873 1 41.186 70.106 0.000
8874 1 42.606 70.106 0.000
8875 1 43.316 68.876 0.000
8876 2 43.316 68.876 -1.500
8877 3 44.416 68.876 -1.633
8878 3 42.766 69.829 -1.633
8879 3 42.766 67.923 -1.633
8880 1 44.736 68.876 0.000
8881 1 45.446 70.106 0.000
8882 3 45.446 70.106 1.100
8883 1 46.867 70.106 0.000
8884 1 47.577 68.876 0.000
8885 1 48.997 68.876 0.000
8886 1 49.707 70.106 0.000
8887 1 51.127 70.106 0.000
8888 1 51.837 68.876 0.000
8889 1 53.258 68.876 0.000
8890 1 53.968 70.106 0.000
8891 1 55.388 70.106 0.000
8892 1 56.098 68.876 0.000
8893 1 57.518 68.876 0.000
8894 1 58.228 70.106 0.000
8895 1 59.648 70.106 0.000
8896 2 59.648 70.106 -1.500
8897 3 60.748 70.106 -1.633
8898 3 59.098 71.059 -1.633
8899 3 59.098 69.153 -1.633
8900 1 60.358 68.876 0.000
8901 1 61.779 68.876 0.000
8902 1 62.489 70.106 0.000
8903 1 63.909 70.106 0.000
8904 2 63.909 70.106 -1.500
8905 3 65.009 70.106 -1.633
8906 3 63.359 71.059 -1.633
8907 3 63.359 69.153 -1.633
8908 1 64.619 68.876 0.000
8909 1 66.039 68.876 0.000
8910 1 66.749 70.106 0.000
8911 1 68.170 70.106 0.000
8912 1 68.880 68.876 0.000
8913 1 70.300 68.876 0.000
8914 1 71.010 70.106 0.000
8915 1 72.430 70.106 0.000
8916 1 73.140 68.876 0.000
8917 2 73.140 68.876 -1.500
8918 3 74.240 68.876 -1.633
8919 3 72.590 69.829 -1.633
8920 3 72.590 67.923 -1.633
8921 1 74.561 68.876 0.000
8922 1 75.271 70.106 0.000
8923 1 76.691 70.106 0.000
8924 3 76.691 70.106 -1.100
8925 1 77.401 68.876 0.000
8926 1 78.821 68.876 0.000
8927 1 79.531 70.106 0.000
8928 3 79.531 70.106 1.100
8929 1 80.951 70.106 0.000
8930 1 81.662 68.876 0.000
8931 1 83.082 68.876 0.000
8932 1 83.792 70.106 0.000
8933 1 85.212 70.106 0.000
8934 1 85.922 68.876 0.000
8935 1 87.342 68.876 0.000
8936 1 88.052 70.106 0.000
8937 1 89.473 70.106 0.000
8938 1 90.183 68.876 0.000
8939 1 91.603 68.876 0.000
8940 2 91.603 68.876 1.500
8941 3 92.703 68.876 1.633
8942 3 91.053 69.829 1.633
8943 3 91.053 67.923 1.633
8944 1 92.313 70.106 0.000
8945 1 93.733 70.106 0.000
8946 1 94.443 68.876 0.000
8947 3 94.443 68.876 -1.100
8948 1 95.864 68.876 0.000
8949 1 96.574 70.106 0.000
8950 2 96.574 70.106 -1.500
8951 3 97.674 70.106 -1.633
8952 3 96.024 71.059 -1.633
8953 3 96.024 69.153 -1.633
8954 1 97.994 70.106 0.000
8955 1 98.704 68.876 0.000
8956 1 100.124 68.876 0.000
8957 3 100.124 68.876 -1.100
8958 1 100.834 70.106 0.000
8959 1 102.254 70.106 0.000
8960 3 102.254 70.106 -1.100
8961 1 102.965 68.876 0.000
8962 1 104.385 68.876 0.000
8963 1 105.095 70.106 0.000
8964 1 106.515 70.106 0.000
8965 1 107.225 68.876 0.000
8966 2 107.225 68.876 1.500
8967 3 108.325 68.876 1.633
8968 3 106.675 69.829 1.633
8969 3 106.675 67.923 1.633
8970 1 108.645 68.876 0.000
8971 1 109.355 70.106 0.000
8972 1 110.776 70.106 0.000
8973 1 111.486 68.876 0.000
8974 1 112.906 68.876 0.000
8975 1 113.616 70.106 0.000
8976 1 115.036 70.106 0.000
8977 1 115.746 68.876 0.000
8978 1 117.167 68.876 0.000
8979 1 117.877 70.106 0.000
8980 1 119.297 70.106 0.000
8981 1 120.007 68.876 0.000
8982 1 121.427 68.876 0.000
8983 1 122.137 70.106 0.000
8984 1 123.557 70.106 0.000
8985 2 123.557 70.106 1.500
8986 3 124.657 70.106 1.633
8987 3 123.007 71.059 1.633
8988 3 123.007 69.153 1.633
8989 1 124.267 68.876 0.000
8990 1 125.688 68.876 0.000
8991 1 126.398 70.106 0.000
8992 1 127.818 70.106 0.000
8993 1 128.528 68.876 0.000
8994 2 128.528 68.876 1.500
8995 3 129.628 68.876 1.633
8996 3 127.978 69.829 1.633
8997 3 127.978 67.923 1.633
8998 1 129.948 68.876 0.000
8999 1 130.658 70.106 0.000
9000 1 132.079 70.106 0.000
9001 1 132.789 68.876 0.000
9002 1 134.209 68.876 0.000
9003 1 134.919 70.106 0.000
9004 1 136.339 70.106 0.000
9005 1 137.049 68.876 0.000
9006 1 138.470 68.876 0.000
9007 1 139.180 70.106 0.000
9008 1 140.600 70.106 0.000
9009 1 141.310 68.876 0.000
9010 1 142.730 68.876 0.000
9011 1 143.440 70.106 0.000
9012 1 144.860 70.106 0.000
9013 1 145.571 68.876 0.000
9014 1 146.991 68.876 0.000
9015 1 147.701 70.106 0.000
9016 1 149.121 70.106 0.000
9017 1 149.831 68.876 0.000
9018 1 151.251 68.876 0.000
9019 1 151.961 70.106 0.000
9020 1 153.382 70.106 0.000
9021 1 154.092 68.876 0.000
9022 1 155.512 68.876 0.000
9023 2 155.512 68.876 1.500
9024 3 156.612 68.876 1.633
9025 3 154.962 69.829 1.633
9026 3 154.962 67.923 1.633
9027 1 156.222 70.106 0.000
9028 1 157.642 70.106 0.000
9029 3 157.642 70.106 -1.100
9030 1 158.352 68.876 0.000
9031 1 159.773 68.876 0.000
9032 1 160.483 70.106 0.000
9033 1 161.903 70.106 0.000
9034 1 162.613 68.876 0.000
9035 1 164.033 68.876 0.000
9036 3 164.033 68.876 1.100
9037 1 164.743 70.106 0.000
9038 1 166.163 70.106 0.000
9039 1 166.874 68.876 0.000
9040 1 168.294 68.876 0.000
9041 1 169.004 70.106 0.000
9042 1 170.424 70.106 0.000
9043 3 170.424 70.106 1.100
9044 1 171.134 68.876 0.000
9045 1 172.554 68.876 0.000
9046 1 173.264 70.106 0.000
9047 2 173.264 70.106 -1.500
9048 3 174.364 70.106 -1.633
9049 3 172.714 71.059 -1.633
9050 3 172.714 69.153 -1.633
9051 1 174.685 70.106 0.000
9052 1 175.395 68.876 0.000
9053 1 176.815 68.876 0.000
9054 2 176.815 68.876 -1.500
9055 3 177.915 68.876 -1.633
9056 3 176.265 69.829 -1.633
9057 3 176.265 67.923 -1.633
9058 1 177.525 70.106 0.000
9059 1 178.945 70.106 0.000
9060 1 179.655 68.876 0.000
9061 1 181.076 68.876 0.000
9062 1 181.786 70.106 0.000
9063 3 181.786 70.106 1.100
9064 1 183.206 70.106 0.000
9065 1 183.916 68.876 0.000
9066 1 185.336 68.876 0.000
9067 1 186.046 70.106 0.000
9068 1 187.466 70.106 0.000
9069 1 188.177 68.876 0.000
9070 1 189.597 68.876 0.000
9071 1 190.307 70.106 0.000
9072 1 191.727 70.106 0.000
9073 1 192.437 68.876 0.000
9074 1 193.857 68.876 0.000
9075 2 193.857 68.876 1.500
9076 3 194.957 68.876 1.633
9077 3 193.307 69.829 1.633
9078 3 193.307 67.923 1.633
9079 1 194.567 70.106 0.000
9080 1 195.988 70.106 0.000
9081 1 196.698 68.876 0.000
9082 3 196.698 68.876 -1.100
9083 1 198.118 68.876 0.000
9084 1 198.828 70.106 0.000
9085 1 200.248 70.106 0.000
9086 3 200.248 70.106 -1.100
9087 1 200.958 68.876 0.000
9088 1 202.379 68.876 0.000
9089 1 203.089 70.106 0.000
9090 1 204.509 70.106 0.000
9091 1 205.219 68.876 0.000
9092 1 206.639 68.876 0.000
9093 3 206.639 68.876 -1.100
9094 1 207.349 70.106 0.000
9095 1 208.769 70.106 0.000
9096 1 209.480 68.876 0.000
9097 1 210.900 68.876 0.000
9098 1 211.610 70.106 0.000
9099 1 213.030 70.106 0.000
9100 1 213.740 68.876 0.000
9101 1 215.160 68.876 0.000
9102 1 215.870 70.106 0.000
9103 3 215.870 70.106 -1.100
9104 1 217.291 70.106 0.000
9105 1 218.001 68.876 0.000
9106 1 219.421 68.876 0.000
9107 1 220.131 70.106 0.000
9108 1 221.551 70.106 0.000
9109 1 222.261 68.876 0.000
9110 1 223.681 68.876 0.000
9111 1 224.392 70.106 0.000
9112 1 225.812 70.106 0.000
9113 1 226.522 68.876 0.000
9114 1 227.942 68.876 0.000
9115 1 228.652 70.106 0.000
9116 1 230.072 70.106 0.000
9117 1 230.783 68.876 0.000
9118 1 232.203 68.876 0.000
9119 1 232.913 70.106 0.000
9120 1 234.333 70.106 0.000
9121 1 235.043 68.876 0.000
9122 1 236.463 68.876 0.000
9123 2 236.463 68.876 -1.500
9124 3 237.563 68.876 -1.633
9125 3 235.913 69.829 -1.633
9126 3 235.913 67.923 -1.633
9127 1 237.173 70.106 0.000
9128 1 238.594 70.106 0.000
9129 1 239.304 68.876 0.000
9130 1 240.724 68.876 0.000
9131 3 240.724 68.876 1.100
9132 1 241.434 70.106 0.000
9133 1 242.854 70.106 0.000
9134 3 242.854 70.106 -1.100
9135 1 243.564 68.876 0.000
9136 1 244.985 68.876 0.000
9137 1 245.695 70.106 0.000
9138 1 247.115 70.106 0.000
9139 1 247.825 68.876 0.000
9140 1 249.245 68.876 0.000
9141 1 249.955 70.106 0.000
9142 1 0.000 72.566 0.000
9143 1 0.710 71.336 0.000
9144 1 2.130 71.336 0.000
9145 1 2.840 72.566 0.000
9146 2 2.840 72.566 -1.500
9147 3 3.940 72.566 -1.633
9148 3 2.290 73.518 -1.633
9149 3 2.290 71.613 -1.633
9150 1 4.261 72.566 0.000
9151 1 4.971 71.336 0.000
9152 1 6.391 71.336 0.000
9153 1 7.101 72.566 0.000
9154 1 8.521 72.566 0.000
9155 1 9.231 71.336 0.000
9156 1 10.652 71.336 0.000
9157 2 10.652 71.336 1.500
9158 3 11.752 71.336 1.633
9159 3 10.102 72.289 1.633
9160 3 10.101 70.383 1.633
9161 1 11.362 72.566 0.000
9162 1 12.782 72.566 0.000
9163 1 13.492 71.336 0.000
9164 3 13.492 71.336 1.100
9165 1 14.912 71.336 0.000
9166 1 15.622 72.566 0.000
9167 1 17.042 72.566 0.000
9168 2 17.042 72.566 -1.500
9169 3 18.142 72.566 -1.633
9170 3 16.492 73.518 -1.633
9171 3 16.492 71.613 -1.633
9172 1 17.753 71.336 0.000
9173 3 17.753 71.336 1.100
9174 1 19.173 71.336 0.000
9175 1 19.883 72.566 0.000
9176 1 21.303 72.566 0.000
9177 3 21.303 72.566 -1.100
9178 1 22.013 71.336 0.000
9179 1 23.433 71.336 0.000
9180 1 24.143 72.566 0.000
9181 1 25.564 72.566 0.000
9182 3 25.564 72.566 -1.100
9183 1 26.274 71.336 0.000
9184 1 27.694 71.336 0.000
9185 1 28.404 72.566 0.000
9186 1 29.824 72.566 0.000
9187 1 30.534 71.336 0.000
9188 1 31.954 71.336 0.000
9189 1 32.665 72.566 0.000
9190 3 32.665 72.566 1.100
9191 1 34.085 72.566 0.000
9192 1 34.795 71.336 0.000
9193 1 36.215 71.336 0.000
9194 2 36.215 71.336 -1.500
9195 3 37.315 71.336 -1.633
9196 3 35.665 72.289 -1.633
9197 3 35.665 70.383 -1.633
9198 1 36.925 72.566 0.000
9199 1 38.345 72.566 0.000
9200 1 39.055 71.336 0.000
9201 1 40.476 71.336 0.000
9202 1 41.186 72.566 0.000
9203 1 42.606 72.566 0.000
9204 1 43.316 71.336 0.000
9205 1 44.736 71.336 0.000
9206 1 45.446 72.566 0.000
9207 1 46.867 72.566 0.000
9208 3 46.867 72.566 1.100
9209 1 47.577 71.336 0.000
9210 1 48.997 71.336 0.000
9211 1 49.707 72.566 0.000
9212 3 49.707 72.566 -1.100
9213 1 51.127 72.566 0.000
9214 1 51.837 71.336 0.000
9215 1 53.258 71.336 0.000
9216 3 53.258 71.336 -1.100
9217 1 53.968 72.566 0.000
9218 1 55.388 72.566 0.000
9219 1 56.098 71.336 0.000
9220 1 57.518 71.336 0.000
9221 1 58.228 72.566 0.000
9222 1 59.648 72.566 0.000
9223 1 60.358 71.336 0.000
9224 1 61.779 71.336 0.000
9225 1 62.489 72.566 0.000
9226 1 63.909 72.566 0.000
9227 1 64.619 71.336 0.000
9228 1 66.039 71.336 0.000
9229 1 66.749 72.566 0.000
9230 3 66.749 72.566 1.100
9231 1 68.170 72.566 0.000
9232 3 68.170 72.566 -1.100
9233 1 68.880 71.336 0.000
9234 1 70.300 71.336 0.000
9235 1 71.010 72.566 0.000
9236 1 72.430 72.566 0.000
9237 1 73.140 71.336 0.000
9238 1 74.561 71.336 0.000
9239 3 74.561 71.336 1.100
9240 1 75.271 72.566 0.000
9241 1 76.691 72.566 0.000
9242 1 77.401 71.336 0.000
9243 1 78.821 71.336 0.000
9244 1 79.531 72.566 0.000
9245 1 80.951 72.566 0.000
9246 3 80.951 72.566 1.100
9247 1 81.662 71.336 0.000
9248 1 83.082 71.336 0.000
9249 1 83.792 72.566 0.000
9250 1 85.212 72.566 0.000
9251 1 85.922 71.336 0.000
9252 1 87.342 71.336 0.000
9253 1 88.052 72.566 0.000
9254 1 89.473 72.566 0.000
9255 3 89.473 72.566 1.100
9256 1 90.183 71.336 0.000
9257 1 91.603 71.336 0.000
9258 1 92.313 72.566 0.000
9259 3 92.313 72.566 1.100
9260 1 93.733 72.566 0.000
9261 1 94.443 71.336 0.000
9262 1 95.864 71.336 0.000
9263 1 96.574 72.566 0.000
9264 1 97.994 72.566 0.000
9265 1 98.704 71.336 0.000
9266 1 100.124 71.336 0.000
9267 1 100.834 72.566 0.000
9268 1 102.254 72.566 0.000
9269 1 102.965 71.336 0.000
9270 1 104.385 71.336 0.000
9271 2 104.385 71.336 1.500
9272 3 105.485 71.336 1.633
9273 3 103.835 72.289 1.633
9274 3 103.835 70.383 1.633
9275 1 105.095 72.566 0.000
9276 1 106.515 72.566 0.000
9277 1 107.225 71.336 0.000
9278 1 108.645 71.336 0.000
9279 1 109.355 72.566 0.000
9280 1 110.776 72.566 0.000
9281 1 111.486 71.336 0.000
9282 1 112.906 71.336 0.000
9283 3 112.906 71.336 1.100
9284 1 113.616 72.566 0.000
9285 1 115.036 72.566 0.000
9286 1 115.746 71.336 0.000
9287 1 117.167 71.336 0.000
9288 1 117.877 72.566 0.000
9289 1 119.297 72.566 0.000
9290 2 119.297 72.566 -1.500
9291 3 120.397 72.566 -1.633
9292 3 118.747 73.518 -1.633
9293 3 118.747 71.613 -1.633
9294 1 120.007 71.336 0.000
9295 1 121.427 71.336 0.000
9296 1 122.137 72.566 0.000
9297 1 123.557 72.566 0.000
9298 1 124.267 71.336 0.000
9299 1 125.688 71.336 0.000
9300 1 126.398 72.566 0.000
9301 1 127.818 72.566 0.000
9302 1 128.528 71.336 0.000
9303 1 129.948 71.336 0.000
9304 1 130.658 72.566 0.000
9305 1 132.079 72.566 0.000
9306 1 132.789 71.336 0.000
9307 2 132.789 71.336 1.500
9308 3 133.889 71.336 1.633
9309 3 132.239 72.289 1.633
9310 3 132.239 70.383 1.633
9311 1 134.209 71.336 0.000
9312 1 134.919 72.566 0.000
9313 1 136.339 72.566 0.000
9314 2 136.339 72.566 -1.500
9315 3 137.439 72.566 -1.633
9316 3 135.789 73.518 -1.633
9317 3 135.789 71.613 -1.633
9318 1 137.049 71.336 0.000
9319 1 138.470 71.336 0.000
9320 1 139.180 72.566 0.000
9321 1 140.600 72.566 0.000
9322 1 141.310 71.336 0.000
9323 2 141.310 71.336 -1.500
9324 3 142.410 71.336 -1.633
9325 3 140.760 72.289 -1.633
9326 3 140.760 70.383 -1.633
9327 1 142.730 71.336 0.000
9328 1 143.440 72.566 0.000
9329 1 144.860 72.566 0.000
9330 1 145.571 71.336 0.000
9331 1 146.991 71.336 0.000
9332 1 147.701 72.566 0.000
9333 3 147.701 72.566 1.100
9334 1 149.121 72.566 0.000
9335 3 149.121 72.566 1.100
9336 1 149.831 71.336 0.000
9337 1 151.251 71.336 0.000
9338 1 151.961 72.566 0.000
9339 1 153.382 72.566 0.000
9340 1 154.092 71.336 0.000
9341 3 154.092 71.336 1.100
9342 1 155.512 71.336 0.000
9343 1 156.222 72.566 0.000
9344 1 157.642 72.566 0.000
9345 1 158.352 71.336 0.000
9346 1 159.773 71.336 0.000
9347 1 160.483 72.566 0.000
9348 1 161.903 72.566 0.000
9349 1 162.613 71.336 0.000
9350 3 162.613 71.336 1.100
9351 1 164.033 71.336 0.000
9352 1 164.743 72.566 0.000
9353 3 164.743 72.566 1.100
9354 1 166.163 72.566 0.000
9355 1 166.874 71.336 0.000
9356 1 168.294 71.336 0.000
9357 2 168.294 71.336 1.500
9358 3 169.394 71.336 1.633
9359 3 167.744 72.289 1.633
9360 3 167.744 70.383 1.633
9361 1 169.004 72.566 0.000
9362 1 170.424 72.566 0.000
9363 1 171.134 71.336 0.000
9364 1 172.554 71.336 0.000
9365 1 173.264 72.566 0.000
9366 3 173.264 72.566 1.100
9367 1 174.685 72.566 0.000
9368 1 175.395 71.336 0.000
9369 1 176.815 71.336 0.000
9370 1 177.525 72.566 0.000
9371 1 178.945 72.566 0.000
9372 1 179.655 71.336 0.000
9373 3 179.655 71.336 1.100
9374 1 181.076 71.336 0.000
9375 1 181.786 72.566 0.000
9376 1 183.206 72.566 0.000
9377 1 183.916 71.336 0.000
9378 1 185.336 71.336 0.000
9379 1 186.046 72.566 0.000
9380 1 187.466 72.566 0.000
9381 1 188.177 71.336 0.000
9382 3 188.177 71.336 -1.100
9383 1 189.597 71.336 0.000
9384 1 190.307 72.566 0.000
9385 1 191.727 72.566 0.000
9386 1 192.437 71.336 0.000
9387 1 193.857 71.336 0.000
9388 1 194.567 72.566 0.000
9389 1 195.988 72.566 0.000
9390 1 196.698 71.336 0.000
9391 3 196.698 71.336 1.100
9392 1 198.118 71.336 0.000
9393 1 198.828 72.566 0.000
9394 1 200.248 72.566 0.000
9395 3 200.248 72.566 1.100
9396 1 200.958 71.336 0.000
9397 1 202.379 71.336 0.000
9398 1 203.089 72.566 0.000
9399 1 204.509 72.566 0.000
9400 1 205.219 71.336 0.000
9401 1 206.639 71.336 0.000
9402 1 207.349 72.566 0.000
9403 1 208.769 72.566 0.000
9404 3 208.769 72.566 -1.100
9405 1 209.480 71.336 0.000
9406 1 210.900 71.336 0.000
9407 1 211.610 72.566 0.000
9408 1 213.030 72.566 0.000
9409 1 213.740 71.336 0.000
9410 1 215.160 71.336 0.000
9411 1 215.870 72.566 0.000
9412 1 217.291 72.566 0.000
9413 1 218.001 71.336 0.000
9414 3 218.001 71.336 -1.100
9415 1 219.421 71.336 0.000
9416 3 219.421 71.336 -1.100
9417 1 220.131 72.566 0.000
9418 1 221.551 72.566 0.000
9419 1 222.261 71.336 0.000
9420 1 223.681 71.336 0.000
9421 1 224.392 72.566 0.000
9422 1 225.812 72.566 0.000
9423 1 226.522 71.336 0.000
9424 1 227.942 71.336 0.000
9425 1 228.652 72.566 0.000
9426 1 230.072 72.566 0.000
9427 3 230.072 72.566 1.100
9428 1 230.783 71.336 0.000
9429 1 232.203 71.336 0.000
9430 3 232.203 71.336 -1.100
9431 1 232.913 72.566 0.000
9432 2 232.913 72.566 1.500
9433 3 234.013 72.566 1.633
9434 3 232.363 73.518 1.633
9435 3 232.363 71.613 1.633
9436 1 234.333 72.566 0.000
9437 1 235.043 71.336 0.000
9438 1 236.463 71.336 0.000
9439 1 237.173 72.566 0.000
9440 1 238.594 72.566 0.000
9441 1 239.304 71.336 0.000
9442 1 240.724 71.336 0.000
9443 3 240.724 71.336 -1.100
9444 1 241.434 72.566 0.000
9445 1 242.854 72.566 0.000
9446 1 243.564 71.336 0.000
9447 1 244.985 71.336 0.000
9448 1 245.695 72.566 0.000
9449 1 247.115 72.566 0.000
9450 2 247.115 72.566 1.500
9451 3 248.215 72.566 1.633
9452 3 246.565 73.518 1.633
9453 3 246.565 71.613 1.633
9454 1 247.825 71.336 0.000
9455 1 249.245 71.336 0.000
9456 1 249.955 72.566 0.000
9457 1 0.000 75.026 0.000
9458 1 0.710 73.796 0.000
9459 1 2.130 73.796 0.000
9460 1 2.840 75.026 0.000
9461 3 2.840 75.026 -1.100
9462 1 4.261 75.026 0.000
9463 1 4.971 73.796 0.000
9464 1 6.391 73.796 0.000
9465 2 6.391 73.796 -1.500
9466 3 7.491 73.796 -1.633
9467 3 5.841 74.748 -1.633
9468 3 5.841 72.843 -1.633
9469 1 7.101 75.026 0.000
9470 1 8.521 75.026 0.000
9471 1 9.231 73.796 0.000
9472 1 10.652 73.796 0.000
9473 1 11.362 75.026 0.000
9474 3 11.362 75.026 1.100
9475 1 12.782 75.026 0.000
9476 1 13.492 73.796 0.000
9477 1 14.912 73.796 0.000
9478 1 15.622 75.026 0.000
9479 1 17.042 75.026 0.000
9480 1 17.753 73.796 0.000
9481 1 19.173 73.796 0.000
9482 1 19.883 75.026 0.000
9483 1 21.303 75.026 0.000
9484 2 21.303 75.026 1.500
9485 3 22.403 75.026 1.633
9486 3 20.753 75.978 1.633
9487 3 20.753 74.073 1.633
9488 1 22.013 73.796 0.000
9489 1 23.433 73.796 0.000
9490 1 24.143 75.026 0.000
9491 1 25.564 75.026 0.000
9492 1 26.274 73.796 0.000
9493 1 27.694 73.796 0.000
9494 1 28.404 75.026 0.000
9495 2 28.404 75.026 -1.500
9496 3 29.504 75.026 -1.633
9497 3 27.854 75.978 -1.633
9498 3 27.854 74.073 -1.633
9499 1 29.824 75.026 0.000
9500 1 30.534 73.796 0.000
9501 2 30.534 73.796 1.500
9502 3 31.634 73.796 1.633
9503 3 29.984 74.748 1.633
9504 3 29.984 72.843 1.633
9505 1 31.954 73.796 0.000
9506 1 32.665 75.026 0.000
9507 1 34.085 75.026 0.000
9508 1 34.795 73.796 0.000
9509 1 36.215 73.796 0.000
9510 1 36.925 75.026 0.000
9511 1 38.345 75.026 0.000
9512 1 39.055 73.796 0.000
9513 2 39.055 73.796 1.500
9514 3 40.155 73.796 1.633
9515 3 38.505 74.748 1.633
9516 3 38.505 72.843 1.633
9517 1 40.476 73.796 0.000
9518 1 41.186 75.026 0.000
9519 1 42.606 75.026 0.000
9520 1 43.316 73.796 0.000
9521 1 44.736 73.796 0.000
9522 1 45.446 75.026 0.000
9523 1 46.867 75.026 0.000
9524 1 47.577 73.796 0.000
9525 1 48.997 73.796 0.000
9526 1 49.707 75.026 0.000
9527 1 51.127 75.026 0.000
9528 1 51.837 73.796 0.000
9529 1 53.258 73.796 0.000
9530 1 53.968 75.026 0.000
9531 1 55.388 75.026 0.000
9532 1 56.098 73.796 0.000
9533 1 57.518 73.796 0.000
9534 3 57.518 73.796 1.100
9535 1 58.228 75.026 0.000
9536 1 59.648 75.026 0.000
9537 1 60.358 73.796 0.000
9538 2 60.358 73.796 1.500
9539 3 61.459 73.796 1.633
9540 3 59.809 74.748 1.633
9541 3 59.809 72.843 1.633
9542 1 61.779 73.796 0.000
9543 1 62.489 75.026 0.000
9544 1 63.909 75.026 0.000
9545 1 64.619 73.796 0.000
9546 1 66.039 73.796 0.000
9547 1 66.749 75.026 0.000
9548 1 68.170 75.026 0.000
9549 1 68.880 73.796 0.000
9550 1 70.300 73.796 0.000
9551 1 71.010 75.026 0.000
9552 1 72.430 75.026 0.000
9553 1 73.140 73.796 0.000
9554 3 73.140 73.796 -1.100
9555 1 74.561 73.796 0.000
9556 1 75.271 75.026 0.000
9557 1 76.691 75.026 0.000
9558 1 77.401 73.796 0.000
9559 1 78.821 73.796 0.000
9560 1 79.531 75.026 0.000
9561 1 80.951 75.026 0.000
9562 1 81.662 73.796 0.000
9563 1 83.082 73.796 0.000
9564 1 83.792 75.026 0.000
9565 1 85.212 75.026 0.000
9566 1 85.922 73.796 0.000
9567 1 87.342 73.796 0.000
9568 1 88.052 75.026 0.000
9569 1 89.473 75.026 0.000
9570 1 90.183 73.796 0.000
9571 1 91.603 73.796 0.000
9572 1 92.313 75.026 0.000
9573 1 93.733 75.026 0.000
9574 1 94.443 73.796 0.000
9575 1 95.864 73.796 0.000
9576 1 96.574 75.026 0.000
9577 1 97.994 75.026 0.000
9578 1 98.704 73.796 0.000
9579 1 100.124 73.796 0.000
9580 1 100.834 75.026 0.000
9581 1 102.254 75.026 0.000
9582 1 102.965 73.796 0.000
9583 1 104.385 73.796 0.000
9584 1 105.095 75.026 0.000
9585 1 106.515 75.026 0.000
9586 1 107.225 73.796 0.000
9587 1 108.645 73.796 0.000
9588 3 108.645 73.796 1.100
9589 1 109.355 75.026 0.000
9590 1 110.776 75.026 0.000
9591 1 111.486 73.796 0.000
9592 1 112.906 73.796 0.000
9593 1 113.616 75.026 0.000
9594 1 115.036 75.026 0.000
9595 1 115.746 73.796 0.000
9596 2 115.746 73.796 1.500
9597 3 116.846 73.796 1.633
9598 3 115.196 74.748 1.633
9599 3 115.196 72.843 1.633
9600 1 117.167 73.796 0.000
9601 1 117.877 75.026 0.000
9602 1 119.297 75.026 0.000
9603 1 120.007 73.796 0.000
9604 1 121.427 73.796 0.000
9605 1 122.137 75.026 0.000
9606 1 123.557 75.026 0.000
9607 1 124.267 73.796 0.000
9608 1 125.688 73.796 0.000
9609 1 126.398 75.026 0.000
9610 1 127.818 75.026 0.000
9611 1 128.528 73.796 0.000
9612 1 129.948 73.796 0.000
9613 3 129.948 73.796 -1.100
9614 1 130.658 75.026 0.000
9615 3 130.658 75.026 -1.100
9616 1 132.079 75.026 0.000
9617 1 132.789 73.796 0.000
9618 1 134.209 73.796 0.000
9619 1 134.919 75.026 0.000
9620 1 136.339 75.026 0.000
9621 1 137.049 73.796 0.000
9622 1 138.470 73.796 0.000
9623 1 139.180 75.026 0.000
9624 1 140.600 75.026 0.000
9625 1 141.310 73.796 0.000
9626 3 141.310 73.796 1.100
9627 1 142.730 73.796 0.000
9628 1 143.440 75.026 0.000
9629 2 143.440 75.026 1.500
9630 3 144.540 75.026 1.633
9631 3 142.890 75.978 1.633
9632 3 142.890 74.073 1.633
9633 1 144.860 75.026 0.000
9634 1 145.571 73.796 0.000
9635 1 146.991 73.796 0.000
9636 1 147.701 75.026 0.000
9637 1 149.121 75.026 0.000
9638 1 149.831 73.796 0.000
9639 1 151.251 73.796 0.000
9640 1 151.961 75.026 0.000
9641 2 151.961 75.026 1.500
9642 3 153.061 75.026 1.633
9643 3 151.411 75.978 1.633
9644 3 151.411 74.073 1.633
9645 1 153.382 75.026 0.000
9646 3 153.382 75.026 -1.100
9647 1 154.092 73.796 0.000
9648 1 155.512 73.796 0.000
9649 1 156.222 75.026 0.000
9650 1 157.642 75.026 0.000
9651 1 158.352 73.796 0.000
9652 1 159.773 73.796 0.000
9653 1 160.483 75.026 0.000
9654 1 161.903 75.026 0.000
9655 3 161.903 75.026 1.100
9656 1 162.613 73.796 0.000
9657 3 162.613 73.796 -1.100
9658 1 164.033 73.796 0.000
9659 1 164.743 75.026 0.000
9660 1 166.163 75.026 0.000
9661 1 166.874 73.796 0.000
9662 3 166.874 73.796 -1.100
9663 1 168.294 73.796 0.000
9664 1 169.004 75.026 0.000
9665 1 170.424 75.026 0.000
9666 1 171.134 73.796 0.000
9667 1 172.554 73.796 0.000
9668 1 173.264 75.026 0.000
9669 1 174.685 75.026 0.000
9670 1 175.395 73.796 0.000
9671 1 176.815 73.796 0.000
9672 1 177.525 75.026 0.000
9673 1 178.945 75.026 0.000
9674 1 179.655 73.796 0.000
9675 1 181.076 73.796 0.000
9676 1 181.786 75.026 0.000
9677 1 183.206 75.026 0.000
9678 3 183.206 75.026 -1.100
9679 1 183.916 73.796 0.000
9680 1 185.336 73.796 0.000
9681 1 186.046 75.026 0.000
9682 1 187.466 75.026 0.000
9683 1 188.177 73.796 0.000
9684 1 189.597 73.796 0.000
9685 1 190.307 75.026 0.000
9686 1 191.727 75.026 0.000
9687 1 192.437 73.796 0.000
9688 1 193.857 73.796 0.000
9689 1 194.567 75.026 0.000
9690 2 194.567 75.026 -1.500
9691 3 195.667 75.026 -1.633
9692 3 194.017 75.978 -1.633
9693 3 194.017 74.073 -1.633
9694 1 195.988 75.026 0.000
9695 1 196.698 73.796 0.000
9696 1 198.118 73.796 0.000
9697 1 198.828 75.026 0.000
9698 1 200.248 75.026 0.000
9699 1 200.958 73.796 0.000
9700 1 202.379 73.796 0.000
9701 3 202.379 73.796 -1.100
9702 1 203.089 75.026 0.000
9703 1 204.509 75.026 0.000
9704 1 205.219 73.796 0.000
9705 1 206.639 73.796 0.000
9706 1 207.349 75.026 0.000
9707 1 208.769 75.026 0.000
9708 1 209.480 73.796 0.000
9709 1 210.900 73.796 0.000
9710 1 211.610 75.026 0.000
9711 1 213.030 75.026 0.000
9712 1 213.740 73.796 0.000
9713 1 215.160 73.796 0.000
9714 1 215.870 75.026 0.000
9715 1 217.291 75.026 0.000
9716 1 218.001 73.796 0.000
9717 1 219.421 73.796 0.000
9718 1 220.131 75.026 0.000
9719 1 221.551 75.026 0.000
9720 1 222.261 73.796 0.000
9721 1 223.681 73.796 0.000
9722 2 223.681 73.796 -1.500
9723 3 224.781 73.796 -1.633
9724 3 223.131 74.748 -1.633
9725 3 223.131 72.843 -1.633
9726 1 224.392 75.026 0.000
9727 1 225.812 75.026 0.000
9728 1 226.522 73.796 0.000
9729 1 227.942 73.796 0.000
9730 1 228.652 75.026 0.000
9731 1 230.072 75.026 0.000
9732 1 230.783 73.796 0.000
9733 3 230.783 73.796 -1.100
9734 1 232.203 73.796 0.000
9735 1 232.913 75.026 0.000
9736 1 234.333 75.026 0.000
9737 1 235.043 73.796 0.000
9738 1 236.463 73.796 0.000
9739 1 237.173 75.026 0.000
9740 1 238.594 75.026 0.000
9741 1 239.304 73.796 0.000
9742 1 240.724 73.796 0.000
9743 1 241.434 75.026 0.000
9744 1 242.854 75.026 0.000
9745 1 243.564 73.796 0.000
9746 1 244.985 73.796 0.000
9747 3 244.985 73.796 1.100
9748 1 245.695 75.026 0.000
9749 1 247.115 75.026 0.000
9750 1 247.825 73.796 0.000
9751 1 249.245 73.796 0.000
9752 1 249.955 75.026 0.000
9753 1 0.000 77.486 0.000
9754 2 0.000 77.486 1.500
9755 3 1.100 77.486 1.633
9756 3 -0.550 78.438 1.633
9757 3 -0.550 76.533 1.633
9758 1 0.710 76.256 0.000
9759 1 2.130 76.256 0.000
9760 1 2.840 77.486 0.000
9761 1 4.261 77.486 0.000
9762 1 4.971 76.256 0.000
9763 1 6.391 76.256 0.000
9764 1 7.101 77.486 0.000
9765 1 8.521 77.486 0.000
9766 1 9.231 76.256 0.000
9767 1 10.652 76.256 0.000
9768 3 10.652 76.256 -1.100
9769 1 11.362 77.486 0.000
9770 1 12.782 77.486 0.000
9771 1 13.492 76.256 0.000
9772 1 14.912 76.256 0.000
9773 1 15.622 77.486 0.000
9774 1 17.042 77.486 0.000
9775 1 17.753 76.256 0.000
9776 1 19.173 76.256 0.000
9777 1 19.883 77.486 0.000
9778 1 21.303 77.486 0.000
9779 1 22.013 76.256 0.000
9780 1 23.433 76.256 0.000
9781 1 24.143 77.486 0.000
9782 1 25.564 77.486 0.000
9783 1 26.274 76.256 0.000
9784 1 27.694 76.256 0.000
9785 1 28.404 77.486 0.000
9786 1 29.824 77.486 0.000
9787 1 30.534 76.256 0.000
9788 1 31.954 76.256 0.000
9789 1 32.665 77.486 0.000
9790 2 32.665 77.486 -1.500
9791 3 33.765 77.486 -1.633
9792 3 32.115 78.438 -1.633
9793 3 32.115 76.533 -1.633
9794 1 34.085 77.486 0.000
9795 1 34.795 76.256 0.000
9796 1 36.215 76.256 0.000
9797 2 36.215 76.256 -1.500
9798 3 37.315 76.256 -1.633
9799 3 35.665 77.208 -1.633
9800 3 35.665 75.303 -1.633
9801 1 36.925 77.486 0.000
9802 1 38.345 77.486 0.000
9803 1 39.055 76.256 0.000
9804 1 40.476 76.256 0.000
9805 3 40.476 76.256 -1.100
9806 1 41.186 77.486 0.000
9807 1 42.606 77.486 0.000
9808 1 43.316 76.256 0.000
9809 2 43.316 76.256 1.500
9810 3 44.416 76.256 1.633
9811 3 42.766 77.208 1.633
9812 3 42.766 75.303 1.633
9813 1 44.736 76.256 0.000
9814 1 45.446 77.486 0.000
9815 1 46.867 77.486 0.000
9816 1 47.577 76.256 0.000
9817 1 48.997 76.256 0.000
9818 1 49.707 77.486 0.000
9819 1 51.127 77.486 0.000
9820 1 51.837 76.256 0.000
9821 2 51.837 76.256 -1.500
9822 3 52.937 76.256 -1.633
9823 3 51.287 77.208 -1.633
9824 3 51.287 75.303 -1.633
9825 1 53.258 76.256 0.000
9826 1 53.968 77.486 0.000
9827 1 55.388 77.486 0.000
9828 1 56.098 76.256 0.000
9829 1 57.518 76.256 0.000
9830 3 57.518 76.256 -1.100
9831 1 58.228 77.486 0.000
9832 1 59.648 77.486 0.000
9833 2 59.648 77.486 1.500
9834 3 60.748 77.486 1.633
9835 3 59.098 78.438 1.633
9836 3 59.098 76.533 1.633
9837 1 60.358 76.256 0.000
9838 1 61.779 76.256 0.000
9839 1 62.489 77.486 0.000
9840 1 63.909 77.486 0.000
9841 1 64.619 76.256 0.000
9842 1 66.039 76.256 0.000
9843 3 66.039 76.256 -1.100
9844 1 66.749 77.486 0.000
9845 3 66.749 77.486 -1.100
9846 1 68.170 77.486 0.000
9847 1 68.880 76.256 0.000
9848 3 68.880 76.256 1.100
9849 1 70.300 76.256 0.000
9850 3 70.300 76.256 -1.100
9851 1 71.010 77.486 0.000
9852 1 72.430 77.486 0.000
9853 1 73.140 76.256 0.000
9854 1 74.561 76.256 0.000
9855 1 75.271 77.486 0.000
9856 3 75.271 77.486 -1.100
9857 1 76.691 77.486 0.000
9858 1 77.401 76.256 0.000
9859 1 78.821 76.256 0.000
9860 1 79.531 77.486 0.000
9861 1 80.951 77.486 0.000
9862 3 80.951 77.486 1.100
9863 1 81.662 76.256 0.000
9864 1 83.082 76.256 0.000
9865 1 83.792 77.486 0.000
9866 1 85.212 77.486 0.000
9867 1 85.922 76.256 0.000
9868 1 87.342 76.256 0.000
9869 1 88.052 77.486 0.000
9870 1 89.473 77.486 0.000
9871 1 90.183 76.256 0.000
9872 1 91.603 76.256 0.000
9873 1 92.313 77.486 0.000
9874 1 93.733 77.486 0.000
9875 2 93.733 77.486 -1.500
9876 3 94.833 77.486 -1.633
9877 3 93.183 78.438 -1.633
9878 3 93.183 76.533 -1.633
9879 1 94.443 76.256 0.000
9880 1 95.864 76.256 0.000
9881 1 96.574 77.486 0.000
9882 1 97.994 77.486 0.000
9883 1 98.704 76.256 0.000
9884 2 98.704 76.256 1.500
9885 3 99.804 76.256 1.633
9886 3 98.154 77.208 1.633
9887 3 98.154 75.303 1.633
9888 1 100.124 76.256 0.000
9889 3 100.124 76.256 -1.100
9890 1 100.834 77.486 0.000
9891 1 102.254 77.486 0.000
9892 1 102.965 76.256 0.000
9893 1 104.385 76.256 0.000
9894 1 105.095 77.486 0.000
9895 1 106.515 77.486 0.000
9896 1 107.225 76.256 0.000
9897 1 108.645 76.256 0.000
9898 1 109.355 77.486 0.000
9899 3 109.355 77.486 -1.100
9900 1 110.776 77.486 0.000
9901 1 111.486 76.256 0.000
9902 2 111.486 76.256 -1.500
9903 3 112.586 76.256 -1.633
9904 3 110.936 77.208 -1.633
9905 3 110.936 75.303 -1.633
9906 1 112.906 76.256 0.000
9907 3 112.906 76.256 1.100
9908 1 113.616 77.486 0.000
9909 1 115.036 77.486 0.000
9910 1 115.746 76.256 0.000
9911 3 115.746 76.256 -1.100
9912 1 117.167 76.256 0.000
9913 1 117.877 77.486 0.000
9914 1 119.297 77.486 0.000
9915 1 120.007 76.256 0.000
9916 3 120.007 76.256 -1.100
9917 1 121.427 76.256 0.000
9918 1 122.137 77.486 0.000
9919 1 123.557 77.486 0.000
9920 1 124.267 76.256 0.000
9921 3 124.267 76.256 1.100
9922 1 125.688 76.256 0.000
9923 1 126.398 77.486 0.000
9924 1 127.818 77.486 0.000
9925 1 128.528 76.256 0.000
9926 1 129.948 76.256 0.000
9927 1 130.658 77.486 0.000
9928 1 132.079 77.486 0.000
9929 1 132.789 76.256 0.000
9930 1 134.209 76.256 0.000
9931 3 134.209 76.256 -1.100
9932 1 134.919 77.486 0.000
9933 1 136.339 77.486 0.000
9934 1 137.049 76.256 0.000
9935 1 138.470 76.256 0.000
9936 1 139.180 77.486 0.000
9937 1 140.600 77.486 0.000
9938 3 140.600 77.486 1.100
9939 1 141.310 76.256 0.000
9940 1 142.730 76.256 0.000
9941 1 143.440 77.486 0.000
9942 1 144.860 77.486 0.000
9943 1 145.571 76.256 0.000
9944 3 145.571 76.256 1.100
9945 1 146.991 76.256 0.000
9946 1 147.701 77.486 0.000
9947 1 149.121 77.486 0.000
9948 1 149.831 76.256 0.000
9949 1 151.251 76.256 0.000
9950 1 151.961 77.486 0.000
9951 1 153.382 77.486 0.000
9952 1 154.092 76.256 0.000
9953 3 154.092 76.256 1.100
9954 1 155.512 76.256 0.000
9955 1 156.222 77.486 0.000
9956 2 156.222 77.486 -1.500
9957 3 157.322 77.486 -1.633
9958 3 155.672 78.438 -1.633
9959 3 155.672 76.533 -1.633
9960 1 157.642 77.486 0.000
9961 1 158.352 76.256 0.000
9962 1 159.773 76.256 0.000
9963 1 160.483 77.486 0.000
9964 1 161.903 77.486 0.000
9965 1 162.613 76.256 0.000
9966 1 164.033 76.256 0.000
9967 1 164.743 77.486 0.000
9968 1 166.163 77.486 0.000
9969 2 166.163 77.486 1.500
9970 3 167.263 77.486 1.633
9971 3 165.613 78.438 1.633
9972 3 165.613 76.533 1.633
9973 1 166.874 76.256 0.000
9974 1 168.294 76.256 0.000
9975 1 169.004 77.486 0.000
9976 1 170.424 77.486 0.000
9977 1 171.134 76.256 0.000
9978 1 172.554 76.256 0.000
9979 1 173.264 77.486 0.000
9980 3 173.264 77.486 -1.100
9981 1 174.685 77.486 0.000
9982 2 174.685 77.486 1.500
9983 3 175.785 77.486 1.633
9984 3 174.135 78.438 1.633
9985 3 174.135 76.533 1.633
9986 1 175.395 76.256 0.000
9987 1 176.815 76.256 0.000
9988 1 177.525 77.486 0.000
9989 1 178.945 77.486 0.000
9990 1 179.655 76.256 0.000
9991 1 181.076 76.256 0.000
9992 1 181.786 77.486 0.000
9993 1 183.206 77.486 0.000
9994 1 183.916 76.256 0.000
9995 3 183.916 76.256 1.100
9996 1 185.336 76.256 0.000
9997 1 186.046 77.486 0.000
9998 1 187.466 77.486 0.000
9999 1 188.177 76.256 0.000
10000 2 188.177 76.256 -1.500
10001 3 189.277 76.256 -1.633
10002 3 187.627 77.208 -1.633
10003 3 187.627 75.303 -1.633
10004 1 189.597 76.256 0.000
10005 1 190.307 77.486 0.000
10006 1 191.727 77.486 0.000
10007 1 192.437 76.256 0.000
10008 1 193.857 76.256 0.000
10009 1 194.567 77.486 0.000
10010 1 195.988 77.486 0.000
10011 1 196.698 76.256 0.000
10012 3 196.698 76.256 -1.100
10013 1 198.118 76.256 0.000
10014 1 198.828 77.486 0.000
10015 1 200.248 77.486 0.000
10016 1 200.958 76.256 0.000
10017 1 202.379 76.256 0.000
10018 3 202.379 76.256 1.100
10019 1 203.089 77.486 0.000
10020 1 204.509 77.486 0.000
10021 1 205.219 76.256 0.000
10022 1 206.639 76.256 0.000
10023 1 207.349 77.486 0.000
10024 1 208.769 77.486 0.000
10025 1 209.480 76.256 0.000
10026 1 210.900 76.256 0.000
10027 1 211.610 77.486 0.000
10028 3 211.610 77.486 1.100
10029 1 213.030 77.486 0.000
10030 1 213.740 76.256 0.000
10031 1 215.160 76.256 0.000
10032 1 215.870 77.486 0.000
10033 1 217.291 77.486 0.000
10034 1 218.001 76.256 0.000
10035 1 219.421 76.256 0.000
10036 1 220.131 77.486 0.000
10037 1 221.551 77.486 0.000
10038 3 221.551 77.486 1.100
10039 1 222.261 76.256 0.000
10040 1 223.681 76.256 0.000
10041 1 224.392 77.486 0.000
10042 1 225.812 77.486 0.000
10043 1 226.522 76.256 0.000
10044 1 227.942 76.256 0.000
10045 2 227.942 76.256 -1.500
10046 3 229.042 76.256 -1.633
10047 3 227.392 77.208 -1.633
10048 3 227.392 75.303 -1.633
10049 1 228.652 77.486 0.000
10050 1 230.072 77.486 0.000
10051 1 230.783 76.256 0.000
10052 1 232.203 76.256 0.000
10053 1 232.913 77.486 0.000
10054 1 234.333 77.486 0.000
10055 1 235.043 76.256 0.000
10056 1 236.463 76.256 0.000
10057 1 237.173 77.486 0.000
10058 1 238.594 77.486 0.000
10059 2 238.594 77.486 -1.500
10060 3 239.694 77.486 -1.633
10061 3 238.044 78.438 -1.633
10062 3 238.044 76.533 -1.633
10063 1 239.304 76.256 0.000
10064 1 240.724 76.256 0.000
10065 1 241.434 77.486 0.000
10066 1 242.854 77.486 0.000
10067 1 243.564 76.256 0.000
10068 1 244.985 76.256 0.000
10069 1 245.695 77.486 0.000
10070 1 247.115 77.486 0.000
10071 1 247.825 76.256 0.000
10072 1 249.245 76.256 0.000
10073 1 249.955 77.486 0.000
10074 1 0.000 79.945 0.000
10075 1 0.710 78.715 0.000
10076 1 2.130 78.715 0.000
10077 1 2.840 79.945 0.000
10078 1 4.261 79.945 0.000
10079 1 4.971 78.715 0.000
10080 2 4.971 78.715 -1.500
10081 3 6.071 78.715 -1.633
10082 3 4.421 79.668 -1.633
10083 3 4.421 77.763 -1.633
10084 1 6.391 78.715 0.000
10085 1 7.101 79.945 0.000
10086 1 8.521 79.945 0.000
10087 1 9.231 78.715 0.000
10088 1 10.652 78.715 0.000
10089 3 10.652 78.715 1.100
10090 1 11.362 79.945 0.000
10091 1 12.782 79.945 0.000
10092 1 13.492 78.715 0.000
10093 2 13.492 78.715 1.500
10094 3 14.592 78.715 1.633
10095 3 12.942 79.668 1.633
10096 3 12.942 77.763 1.633
10097 1 14.912 78.715 0.000
10098 1 15.622 79.945 0.000
10099 1 17.042 79.945 0.000
10100 1 17.753 78.715 0.000
10101 1 19.173 78.715 0.000
10102 2 19.173 78.715 -1.500
10103 3 20.273 78.715 -1.633
10104 3 18.623 79.668 -1.633
10105 3 18.623 77.763 -1.633
10106 1 19.883 79.945 0.000
10107 1 21.303 79.945 0.000
10108 1 22.013 78.715 0.000
10109 1 23.433 78.715 0.000
10110 1 24.143 79.945 0.000
10111 3 24.143 79.945 1.100
10112 1 25.564 79.945 0.000
10113 1 26.274 78.715 0.000
10114 1 27.694 78.715 0.000
10115 1 28.404 79.945 0.000
10116 1 29.824 79.945 0.000
10117 1 30.534 78.715 0.000
10118 1 31.954 78.715 0.000
10119 1 32.665 79.945 0.000
10120 1 34.085 79.945 0.000
10121 1 34.795 78.715 0.000
10122 1 36.215 78.715 0.000
10123 1 36.925 79.945 0.000
10124 1 38.345 79.945 0.000
10125 2 38.345 79.945 -1.500
10126 3 39.445 79.945 -1.633
10127 3 37.795 80.898 -1.633
10128 3 37.795 78.993 -1.633
10129 1 39.055 78.715 0.000
10130 1 40.476 78.715 0.000
10131 3 40.476 78.715 -1.100
10132 1 41.186 79.945 0.000
10133 3 41.186 79.945 1.100
10134 1 42.606 79.945 0.000
10135 3 42.606 79.945 1.100
10136 1 43.316 78.715 0.000
10137 1 44.736 78.715 0.000
10138 1 45.446 79.945 0.000
10139 1 46.867 79.945 0.000
10140 1 47.577 78.715 0.000
10141 1 48.997 78.715 0.000
10142 1 49.707 79.945 0.000
10143 1 51.127 79.945 0.000
10144 1 51.837 78.715 0.000
10145 1 53.258 78.715 0.000
10146 1 53.968 79.945 0.000
10147 1 55.388 79.945 0.000
10148 1 56.098 78.715 0.000
10149 1 57.518 78.715 0.000
10150 1 58.228 79.945 0.000
10151 2 58.228 79.945 -1.500
10152 3 59.328 79.945 -1.633
10153 3 57.678 80.898 -1.633
10154 3 57.678 78.993 -1.633
10155 1 59.648 79.945 0.000
10156 1 60.358 78.715 0.000
10157 1 61.779 78.715 0.000
10158 1 62.489 79.945 0.000
10159 1 63.909 79.945 0.000
10160 3 63.909 79.945 -1.100
10161 1 64.619 78.715 0.000
10162 1 66.039 78.715 0.000
10163 1 66.749 79.945 0.000
10164 2 66.749 79.945 1.500
10165 3 67.849 79.945 1.633
10166 3 66.199 80.898 1.633
10167 3 66.199 78.993 1.633
10168 1 68.170 79.945 0.000
10169 1 68.880 78.715 0.000
10170 1 70.300 78.715 0.000
10171 1 71.010 79.945 0.000
10172 1 72.430 79.945 0.000
10173 1 73.140 78.715 0.000
10174 1 74.561 78.715 0.000
10175 1 75.271 79.945 0.000
10176 1 76.691 79.945 0.000
10177 2 76.691 79.945 1.500
10178 3 77.791 79.945 1.633
10179 3 76.141 80.898 1.633
10180 3 76.141 78.993 1.633
10181 1 77.401 78.715 0.000
10182 1 78.821 78.715 0.000
10183 1 79.531 79.945 0.000
10184 1 80.951 79.945 0.000
10185 1 81.662 78.715 0.000
10186 1 83.082 78.715 0.000
10187 1 83.792 79.945 0.000
10188 1 85.212 79.945 0.000
10189 1 85.922 78.715 0.000
10190 1 87.342 78.715 0.000
10191 1 88.052 79.945 0.000
10192 1 89.473 79.945 0.000
10193 1 90.183 78.715 0.000
10194 3 90.183 78.715 -1.100
10195 1 91.603 78.715 0.000
10196 1 92.313 79.945 0.000
10197 1 93.733 79.945 0.000
10198 1 94.443 78.715 0.000
10199 1 95.864 78.715 0.000
10200 1 96.574 79.945 0.000
10201 1 97.994 79.945 0.000
10202 1 98.704 78.715 0.000
10203 1 100.124 78.715 0.000
10204 2 100.124 78.715 -1.500
10205 3 101.224 78.715 -1.633
10206 3 99.574 79.668 -1.633
10207 3 99.574 77.763 -1.633
10208 1 100.834 79.945 0.000
10209 1 102.254 79.945 0.000
10210 1 102.965 78.715 0.000
10211 1 104.385 78.715 0.000
10212 1 105.095 79.945 0.000
10213 1 106.515 79.945 0.000
10214 3 106.515 79.945 1.100
10215 1 107.225 78.715 0.000
10216 1 108.645 78.715 0.000
10217 1 109.355 79.945 0.000
10218 3 109.355 79.945 1.100
10219 1 110.776 79.945 0.000
10220 1 111.486 78.715 0.000
10221 1 112.906 78.715 0.000
10222 1 113.616 79.945 0.000
10223 1 115.036 79.945 0.000
10224 1 115.746 78.715 0.000
10225 1 117.167 78.715 0.000
10226 1 117.877 79.945 0.000
10227 1 119.297 79.945 0.000
10228 1 120.007 78.715 0.000
10229 1 121.427 78.715 0.000
10230 1 122.137 79.945 0.000
10231 1 123.557 79.945 0.000
10232 1 124.267 78.715 0.000
10233 3 124.267 78.715 -1.100
10234 1 125.688 78.715 0.000
10235 1 126.398 79.945 0.000
10236 1 127.818 79.945 0.000
10237 2 127.818 79.945 1.500
10238 3 128.918 79.945 1.633
10239 3 127.268 80.898 1.633
10240 3 127.268 78.993 1.633
10241 1 128.528 78.715 0.000
10242 1 129.948 78.715 0.000
10243 1 130.658 79.945 0.000
10244 1 132.079 79.945 0.000
10245 1 132.789 78.715 0.000
10246 1 134.209 78.715 0.000
10247 1 134.919 79.945 0.000
10248 1 136.339 79.945 0.000
10249 1 137.049 78.715 0.000
10250 1 138.470 78.715 0.000
10251 1 139.180 79.945 0.000
10252 1 140.600 79.945 0.000
10253 1 141.310 78.715 0.000
10254 1 142.730 78.715 0.000
10255 1 143.440 79.945 0.000
10256 2 143.440 79.945 -1.500
10257 3 144.540 79.945 -1.633
10258 3 142.890 80.898 -1.633
10259 3 142.890 78.993 -1.633
10260 1 144.860 79.945 0.000
10261 1 145.571 78.715 0.000
10262 1 146.991 78.715 0.000
10263 1 147.701 79.945 0.000
10264 1 149.121 79.945 0.000
10265 2 149.121 79.945 -1.500
10266 3 150.221 79.945 -1.633
10267 3 148.571 80.898 -1.633
10268 3 148.571 78.993 -1.633
10269 1 149.831 78.715 0.000
10270 1 151.251 78.715 0.000
10271 1 151.961 79.945 0.000
10272 1 153.382 79.945 0.000
10273 1 154.092 78.715 0.000
10274 1 155.512 78.715 0.000
10275 1 156.222 79.945 0.000
10276 1 157.642 79.945 0.000
10277 1 158.352 78.715 0.000
10278 1 159.773 78.715 0.000
10279 1 160.483 79.945 0.000
10280 1 161.903 79.945 0.000
10281 1 162.613 78.715 0.000
10282 2 162.613 78.715 -1.500
10283 3 163.713 78.715 -1.633
10284 3 162.063 79.668 -1.633
10285 3 162.063 77.763 -1.633
10286 1 164.033 78.715 0.000
10287 1 164.743 79.945 0.000
10288 1 166.163 79.945 0.000
10289 1 166.874 78.715 0.000
10290 1 168.294 78.715 0.000
10291 1 169.004 79.945 0.000
10292 1 170.424 79.945 0.000
10293 1 171.134 78.715 0.000
10294 1 172.554 78.715 0.000
10295 1 173.264 79.945 0.000
10296 1 174.685 79.945 0.000
10297 3 174.685 79.945 -1.100
10298 1 175.395 78.715 0.000
10299 1 176.815 78.715 0.000
10300 1 177.525 79.945 0.000
10301 1 178.945 79.945 0.000
10302 1 179.655 78.715 0.000
10303 2 179.655 78.715 -1.500
10304 3 180.755 78.715 -1.633
10305 3 179.105 79.668 -1.633
10306 3 179.105 77.763 -1.633
10307 1 181.076 78.715 0.000
10308 1 181.786 79.945 0.000
10309 1 183.206 79.945 0.000
10310 3 183.206 79.945 1.100
10311 1 183.916 78.715 0.000
10312 1 185.336 78.715 0.000
10313 1 186.046 79.945 0.000
10314 1 187.466 79.945 0.000
10315 1 188.177 78.715 0.000
10316 1 189.597 78.715 0.000
10317 3 189.597 78.715 1.100
10318 1 190.307 79.945 0.000
10319 1 191.727 79.945 0.000
10320 1 192.437 78.715 0.000
10321 2 192.437 78.715 1.500
10322 3 193.537 78.715 1.633
10323 3 191.887 79.668 1.633
10324 3 191.887 77.763 1.633
10325 1 193.857 78.715 0.000
10326 1 194.567 79.945 0.000
10327 2 194.567 79.945 -1.500
10328 3 195.667 79.945 -1.633
10329 3 194.017 80.898 -1.633
10330 3 194.017 78.993 -1.633
10331 1 195.988 79.945 0.000
10332 1 196.698 78.715 0.000
10333 1 198.118 78.715 0.000
10334 1 198.828 79.945 0.000
10335 1 200.248 79.945 0.000
10336 1 200.958 78.715 0.000
10337 3 200.958 78.715 1.100
10338 1 202.379 78.715 0.000
10339 1 203.089 79.945 0.000
10340 1 204.509 79.945 0.000
10341 2 204.509 79.945 1.500
10342 3 205.609 79.945 1.633
10343 3 203.959 80.898 1.633
10344 3 203.959 78.993 1.633
10345 1 205.219 78.715 0.000
10346 1 206.639 78.715 0.000
10347 1 207.349 79.945 0.000
10348 1 208.769 79.945 0.000
10349 1 209.480 78.715 0.000
10350 1 210.900 78.715 0.000
10351 1 211.610 79.945 0.000
10352 1 213.030 79.945 0.000
10353 1 213.740 78.715 0.000
10354 1 215.160 78.715 0.000
10355 1 215.870 79.945 0.000
10356 1 217.291 79.945 0.000
10357 1 218.001 78.715 0.000
10358 1 219.421 78.715 0.000
10359 1 220.131 79.945 0.000
10360 1 221.551 79.945 0.000
10361 1 222.261 78.715 0.000
10362 1 223.681 78.715 0.000
10363 1 224.392 79.945 0.000
10364 1 225.812 79.945 0.000
10365 1 226.522 78.715 0.000
10366 1 227.942 78.715 0.000
10367 1 228.652 79.945 0.000
10368 1 230.072 79.945 0.000
10369 1 230.783 78.715 0.000
10370 1 232.203 78.715 0.000
10371 3 232.203 78.715 -1.100
10372 1 232.913 79.945 0.000
10373 2 232.913 79.945 1.500
10374 3 234.013 79.945 1.633
10375 3 232.363 80.898 1.633
10376 3 232.363 78.993 1.633
10377 1 234.333 79.945 0.000
10378 1 235.043 78.715 0.000
10379 1 236.463 78.715 0.000
10380 1 237.173 79.945 0.000
10381 1 238.594 79.945 0.000
10382 1 239.304 78.715 0.000
10383 1 240.724 78.715 0.000
10384 1 241.434 79.945 0.000
10385 1 242.854 79.945 0.000
10386 1 243.564 78.715 0.000
10387 1 244.985 78.715 0.000
10388 1 245.695 79.945 0.000
10389 1 247.115 79.945 0.000
10390 1 247.825 78.715 0.000
10391 1 249.245 78.715 0.000
10392 1 249.955 79.945 0.000
10393 3 249.955 79.945 -1.100
10394 1 0.000 82.405 0.000
10395 1 0.710 81.175 0.000
10396 3 0.710 81.175 -1.100
10397 1 2.130 81.175 0.000
10398 1 2.840 82.405 0.000
10399 1 4.261 82.405 0.000
10400 1 4.971 81.175 0.000
10401 1 6.391 81.175 0.000
10402 1 7.101 82.405 0.000
10403 1 8.521 82.405 0.000
10404 1 9.231 81.175 0.000
10405 1 10.652 81.175 0.000
10406 2 10.652 81.175 1.500
10407 3 11.752 81.175 1.633
10408 3 10.102 82.128 1.633
10409 3 10.101 80.223 1.633
10410 1 11.362 82.405 0.000
10411 1 12.782 82.405 0.000
10412 1 13.492 81.175 0.000
10413 2 13.492 81.175 -1.500
10414 3 14.592 81.175 -1.633
10415 3 12.942 82.128 -1.633
10416 3 12.942 80.223 -1.633
10417 1 14.912 81.175 0.000
10418 1 15.622 82.405 0.000
10419 1 17.042 82.405 0.000
10420 2 17.042 82.405 -1.500
10421 3 18.142 82.405 -1.633
10422 3 16.492 83.358 -1.633
10423 3 16.492 81.453 -1.633
10424 1 17.753 81.175 0.000
10425 1 19.173 81.175 0.000
10426 3 19.173 81.175 1.100
10427 1 19.883 82.405 0.000
10428 1 21.303 82.405 0.000
10429 1 22.013 81.175 0.000
10430 1 23.433 81.175 0.000
10431 1 24.143 82.405 0.000
10432 1 25.564 82.405 0.000
10433 1 26.274 81.175 0.000
10434 3 26.274 81.175 1.100
10435 1 27.694 81.175 0.000
10436 3 27.694 81.175 -1.100
10437 1 28.404 82.405 0.000
10438 1 29.824 82.405 0.000
10439 1 30.534 81.175 0.000
10440 1 31.954 81.175 0.000
10441 3 31.954 81.175 1.100
10442 1 32.665 82.405 0.000
10443 1 34.085 82.405 0.000
10444 1 34.795 81.175 0.000
10445 1 36.215 81.175 0.000
10446 1 36.925 82.405 0.000
10447 1 38.345 82.405 0.000
10448 1 39.055 81.175 0.000
10449 1 40.476 81.175 0.000
10450 1 41.186 82.405 0.000
10451 1 42.606 82.405 0.000
10452 1 43.316 81.175 0.000
10453 1 44.736 81.175 0.000
10454 1 45.446 82.405 0.000
10455 1 46.867 82.405 0.000
10456 1 47.577 81.175 0.000
10457 1 48.997 81.175 0.000
10458 1 49.707 82.405 0.000
10459 1 51.127 82.405 0.000
10460 1 51.837 81.175 0.000
10461 1 53.258 81.175 0.000
10462 3 53.258 81.175 1.100
10463 1 53.968 82.405 0.000
10464 1 55.388 82.405 0.000
10465 1 56.098 81.175 0.000
10466 3 56.098 81.175 -1.100
10467 1 57.518 81.175 0.000
10468 1 58.228 82.405 0.000
10469 1 59.648 82.405 0.000
10470 1 60.358 81.175 0.000
10471 1 61.779 81.175 0.000
10472 1 62.489 82.405 0.000
10473 1 63.909 82.405 0.000
10474 1 64.619 81.175 0.000
10475 1 66.039 81.175 0.000
10476 1 66.749 82.405 0.000
10477 1 68.170 82.405 0.000
10478 1 68.880 81.175 0.000
10479 1 70.300 81.175 0.000
10480 1 71.010 82.405 0.000
10481 1 72.430 82.405 0.000
10482 3 72.430 82.405 1.100
10483 1 73.140 81.175 0.000
10484 1 74.561 81.175 0.000
10485 1 75.271 82.405 0.000
10486 1 76.691 82.405 0.000
10487 1 77.401 81.175 0.000
10488 1 78.821 81.175 0.000
10489 1 79.531 82.405 0.000
10490 1 80.951 82.405 0.000
10491 1 81.662 81.175 0.000
10492 1 83.082 81.175 0.000
10493 1 83.792 82.405 0.000
10494 1 85.212 82.405 0.000
10495 1 85.922 81.175 0.000
10496 1 87.342 81.175 0.000
10497 1 88.052 82.405 0.000
10498 1 89.473 82.405 0.000
10499 1 90.183 81.175 0.000
10500 1 91.603 81.175 0.000
10501 1 92.313 82.405 0.000
10502 1 93.733 82.405 0.000
10503 1 94.443 81.175 0.000
10504 1 95.864 81.175 0.000
10505 2 95.864 81.175 -1.500
10506 3 96.964 81.175 -1.633
10507 3 95.314 82.128 -1.633
10508 3 95.314 80.223 -1.633
10509 1 96.574 82.405 0.000
10510 1 97.994 82.405 0.000
10511 3 97.994 82.405 1.100
10512 1 98.704 81.175 0.000
10513 1 100.124 81.175 0.000
10514 1 100.834 82.405 0.000
10515 1 102.254 82.405 0.000
10516 1 102.965 81.175 0.000
10517 1 104.385 81.175 0.000
10518 1 105.095 82.405 0.000
10519 1 106.515 82.405 0.000
10520 1 107.225 81.175 0.000
10521 1 108.645 81.175 0.000
10522 1 109.355 82.405 0.000
10523 1 110.776 82.405 0.000
10524 1 111.486 81.175 0.000
10525 1 112.906 81.175 0.000
10526 1 113.616 82.405 0.000
10527 1 115.036 82.405 0.000
10528 3 115.036 82.405 -1.100
10529 1 115.746 81.175 0.000
10530 1 117.167 81.175 0.000
10531 1 117.877 82.405 0.000
10532 1 119.297 82.405 0.000
10533 1 120.007 81.175 0.000
10534 2 120.007 81.175 1.500
10535 3 121.107 81.175 1.633
10536 3 119.457 82.128 1.633
10537 3 119.457 80.223 1.633
10538 1 121.427 81.175 0.000
10539 1 122.137 82.405 0.000
10540 3 122.137 82.405 -1.100
10541 1 123.557 82.405 0.000
10542 1 124.267 81.175 0.000
10543 1 125.688 81.175 0.000
10544 1 126.398 82.405 0.000
10545 1 127.818 82.405 0.000
10546 1 128.528 81.175 0.000
10547 1 129.948 81.175 0.000
10548 1 130.658 82.405 0.000
10549 2 130.658 82.405 -1.500
10550 3 131.758 82.405 -1.633
10551 3 130.108 83.358 -1.633
10552 3 130.108 81.453 -1.633
10553 1 132.079 82.405 0.000
10554 1 132.789 81.175 0.000
10555 1 134.209 81.175 0.000
10556 2 134.209 81.175 1.500
10557 3 135.309 81.175 1.633
10558 3 133.659 82.128 1.633
10559 3 133.659 80.223 1.633
10560 1 134.919 82.405 0.000
10561 1 136.339 82.405 0.000
10562 2 136.339 82.405 -1.500
10563 3 137.439 82.405 -1.633
10564 3 135.789 83.358 -1.633
10565 3 135.789 81.453 -1.633
10566 1 137.049 81.175 0.000
10567 1 138.470 81.175 0.000
10568 1 139.180 82.405 0.000
10569 1 140.600 82.405 0.000
10570 2 140.600 82.405 -1.500
10571 3 141.700 82.405 -1.633
10572 3 140.050 83.358 -1.633
10573 3 140.050 81.453 -1.633
10574 1 141.310 81.175 0.000
10575 1 142.730 81.175 0.000
10576 3 142.730 81.175 1.100
10577 1 143.440 82.405 0.000
10578 1 144.860 82.405 0.000
10579 1 145.571 81.175 0.000
10580 1 146.991 81.175 0.000
10581 1 147.701 82.405 0.000
10582 1 149.121 82.405 0.000
10583 1 149.831 81.175 0.000
10584 1 151.251 81.175 0.000
10585 1 151.961 82.405 0.000
10586 1 153.382 82.405 0.000
10587 2 153.382 82.405 -1.500
10588 3 154.482 82.405 -1.633
10589 3 152.832 83.358 -1.633
10590 3 152.832 81.453 -1.633
10591 1 154.092 81.175 0.000
10592 1 155.512 81.175 0.000
10593 1 156.222 82.405 0.000
10594 1 157.642 82.405 0.000
10595 3 157.642 82.405 1.100
10596 1 158.352 81.175 0.000
10597 1 159.773 81.175 0.000
10598 1 160.483 82.405 0.000
10599 1 161.903 82.405 0.000
10600 1 162.613 81.175 0.000
10601 1 164.033 81.175 0.000
10602 1 164.743 82.405 0.000
10603 1 166.163 82.405 0.000
10604 1 166.874 81.175 0.000
10605 1 168.294 81.175 0.000
10606 1 169.004 82.405 0.000
10607 1 170.424 82.405 0.000
10608 1 171.134 81.175 0.000
10609 1 172.554 81.175 0.000
10610 1 173.264 82.405 0.000
10611 2 173.264 82.405 -1.500
10612 3 174.364 82.405 -1.633
10613 3 172.714 83.358 -1.633
10614 3 172.714 81.453 -1.633
10615 1 174.685 82.405 0.000
10616 1 175.395 81.175 0.000
10617 1 176.815 81.175 0.000
10618 1 177.525 82.405 0.000
10619 1 178.945 82.405 0.000
10620 3 178.945 82.405 -1.100
10621 1 179.655 81.175 0.000
10622 1 181.076 81.175 0.000
10623 1 181.786 82.405 0.000
10624 1 183.206 82.405 0.000
10625 1 183.916 81.175 0.000
10626 1 185.336 81.175 0.000
10627 1 186.046 82.405 0.000
10628 1 187.466 82.405 0.000
10629 1 188.177 81.175 0.000
10630 1 189.597 81.175 0.000
10631 1 190.307 82.405 0.000
10632 1 191.727 82.405 0.000
10633 1 192.437 81.175 0.000
10634 3 192.437 81.175 1.100
10635 1 193.857 81.175 0.000
10636 1 194.567 82.405 0.000
10637 1 195.988 82.405 0.000
10638 1 196.698 81.175 0.000
10639 1 198.118 81.175 0.000
10640 1 198.828 82.405 0.000
10641 1 200.248 82.405 0.000
10642 1 200.958 81.175 0.000
10643 1 202.379 81.175 0.000
10644 2 202.379 81.175 -1.500
10645 3 203.478 81.175 -1.633
10646 3 201.828 82.128 -1.633
10647 3 201.828 80.223 -1.633
10648 1 203.089 82.405 0.000
10649 1 204.509 82.405 0.000
10650 1 205.219 81.175 0.000
10651 1 206.639 81.175 0.000
10652 1 207.349 82.405 0.000
10653 1 208.769 82.405 0.000
10654 1 209.480 81.175 0.000
10655 1 210.900 81.175 0.000
10656 1 211.610 82.405 0.000
10657 1 213.030 82.405 0.000
10658 1 213.740 81.175 0.000
10659 1 215.160 81.175 0.000
10660 1 215.870 82.405 0.000
10661 1 217.291 82.405 0.000
10662 1 218.001 81.175 0.000
10663 1 219.421 81.175 0.000
10664 3 219.421 81.175 -1.100
10665 1 220.131 82.405 0.000
10666 1 221.551 82.405 0.000
10667 3 221.551 82.405 1.100
10668 1 222.261 81.175 0.000
10669 1 223.681 81.175 0.000
10670 3 223.681 81.175 1.100
10671 1 224.392 82.405 0.000
10672 1 225.812 82.405 0.000
10673 2 225.812 82.405 1.500
10674 3 226.912 82.405 1.633
10675 3 225.262 83.358 1.633
10676 3 225.262 81.453 1.633
10677 1 226.522 81.175 0.000
10678 1 227.942 81.175 0.000
10679 1 228.652 82.405 0.000
10680 3 228.652 82.405 1.100
10681 1 230.072 82.405 0.000
10682 1 230.783 81.175 0.000
10683 1 232.203 81.175 0.000
10684 1 232.913 82.405 0.000
10685 1 234.333 82.405 0.000
10686 3 234.333 82.405 -1.100
10687 1 235.043 81.175 0.000
10688 1 236.463 81.175 0.000
10689 1 237.173 82.405 0.000
10690 1 238.594 82.405 0.000
10691 1 239.304 81.175 0.000
10692 1 240.724 81.175 0.000
10693 1 241.434 82.405 0.000
10694 2 241.434 82.405 -1.500
10695 3 242.534 82.405 -1.633
10696 3 240.884 83.358 -1.633
10697 3 240.884 81.453 -1.633
10698 1 242.854 82.405 0.000
10699 1 243.564 81.175 0.000
10700 1 244.985 81.175 0.000
10701 1 245.695 82.405 0.000
10702 1 247.115 82.405 0.000
10703 1 247.825 81.175 0.000
10704 1 249.245 81.175 0.000
10705 1 249.955 82.405 0.000
10706 1 0.000 84.865 0.000
10707 1 0.710 83.635 0.000
10708 1 2.130 83.635 0.000
10709 1 2.840 84.865 0.000
10710 1 4.261 84.865 0.000
10711 3 4.261 84.865 -1.100
10712 1 4.971 83.635 0.000
10713 2 4.971 83.635 1.500
10714 3 6.071 83.635 1.633
10715 3 4.421 84.588 1.633
10716 3 4.421 82.683 1.633
10717 1 6.391 83.635 0.000
10718 3 6.391 83.635 -1.100
10719 1 7.101 84.865 0.000
10720 1 8.521 84.865 0.000
10721 1 9.231 83.635 0.000
10722 1 10.652 83.635 0.000
10723 1 11.362 84.865 0.000
10724 1 12.782 84.865 0.000
10725 1 13.492 83.635 0.000
10726 3 13.492 83.635 1.100
10727 1 14.912 83.635 0.000
10728 3 14.912 83.635 1.100
10729 1 15.622 84.865 0.000
10730 1 17.042 84.865 0.000
10731 2 17.042 84.865 1.500
10732 3 18.142 84.865 1.633
10733 3 16.492 85.818 1.633
10734 3 16.492 83.912 1.633
10735 1 17.753 83.635 0.000
10736 1 19.173 83.635 0.000
10737 1 19.883 84.865 0.000
10738 1 21.303 84.865 0.000
10739 1 22.013 83.635 0.000
10740 3 22.013 83.635 1.100
10741 1 23.433 83.635 0.000
10742 1 24.143 84.865 0.000
10743 1 25.564 84.865 0.000
10744 1 26.274 83.635 0.000
10745 1 27.694 83.635 0.000
10746 1 28.404 84.865 0.000
10747 1 29.824 84.865 0.000
10748 1 30.534 83.635 0.000
10749 3 30.534 83.635 -1.100
10750 1 31.954 83.635 0.000
10751 1 32.665 84.865 0.000
10752 1 34.085 84.865 0.000
10753 1 34.795 83.635 0.000
10754 1 36.215 83.635 0.000
10755 3 36.215 83.635 1.100
10756 1 36.925 84.865 0.000
10757 1 38.345 84.865 0.000
10758 1 39.055 83.635 0.000
10759 1 40.476 83.635 0.000
10760 2 40.476 83.635 1.500
10761 3 41.576 83.635 1.633
10762 3 39.926 84.588 1.633
10763 3 39.926 82.683 1.633
10764 1 41.186 84.865 0.000
10765 1 42.606 84.865 0.000
10766 1 43.316 83.635 0.000
10767 1 44.736 83.635 0.000
10768 1 45.446 84.865 0.000
10769 1 46.867 84.865 0.000
10770 1 47.577 83.635 0.000
10771 2 47.577 83.635 1.500
10772 3 48.677 83.635 1.633
10773 3 47.027 84.588 1.633
10774 3 47.027 82.683 1.633
10775 1 48.997 83.635 0.000
10776 1 49.707 84.865 0.000
10777 1 51.127 84.865 0.000
10778 1 51.837 83.635 0.000
10779 1 53.258 83.635 0.000
10780 1 53.968 84.865 0.000
10781 1 55.388 84.865 0.000
10782 1 56.098 83.635 0.000
10783 1 57.518 83.635 0.000
10784 1 58.228 84.865 0.000
10785 1 59.648 84.865 0.000
10786 1 60.358 83.635 0.000
10787 1 61.779 83.635 0.000
10788 2 61.779 83.635 -1.500
10789 3 62.879 83.635 -1.633
10790 3 61.229 84.588 -1.633
10791 3 61.229 82.683 -1.633
10792 1 62.489 84.865 0.000
10793 1 63.909 84.865 0.000
10794 1 64.619 83.635 0.000
10795 1 66.039 83.635 0.000
10796 1 66.749 84.865 0.000
10797 1 68.170 84.865 0.000
10798 1 68.880 83.635 0.000
10799 2 68.880 83.635 -1.500
10800 3 69.980 83.635 -1.633
10801 3 68.330 84.588 -1.633
10802 3 68.330 82.683 -1.633
10803 1 70.300 83.635 0.000
10804 1 71.010 84.865 0.000
10805 1 72.430 84.865 0.000
10806 1 73.140 83.635 0.000
10807 1 74.561 83.635 0.000
10808 1 75.271 84.865 0.000
10809 1 76.691 84.865 0.000
10810 1 77.401 83.635 0.000
10811 1 78.821 83.635 0.000
10812 1 79.531 84.865 0.000
10813 1 80.951 84.865 0.000
10814 1 81.662 83.635 0.000
10815 3 81.662 83.635 -1.100
10816 1 83.082 83.635 0.000
10817 1 83.792 84.865 0.000
10818 1 85.212 84.865 0.000
10819 1 85.922 83.635 0.000
10820 1 87.342 83.635 0.000
10821 1 88.052 84.865 0.000
10822 2 88.052 84.865 1.500
10823 3 89.152 84.865 1.633
10824 3 87.502 85.818 1.633
10825 3 87.502 83.912 1.633
10826 1 89.473 84.865 0.000
10827 1 90.183 83.635 0.000
10828 1 91.603 83.635 0.000
10829 1 92.313 84.865 0.000
10830 1 93.733 84.865 0.000
10831 1 94.443 83.635 0.000
10832 1 95.864 83.635 0.000
10833 1 96.574 84.865 0.000
10834 1 97.994 84.865 0.000
10835 1 98.704 83.635 0.000
10836 1 100.124 83.635 0.000
10837 1 100.834 84.865 0.000
10838 1 102.254 84.865 0.000
10839 3 102.254 84.865 1.100
10840 1 102.965 83.635 0.000
10841 1 104.385 83.635 0.000
10842 1 105.095 84.865 0.000
10843 2 105.095 84.865 1.500
10844 3 106.195 84.865 1.633
10845 3 104.545 85.818 1.633
10846 3 104.545 83.912 1.633
10847 1 106.515 84.865 0.000
10848 1 107.225 83.635 0.000
10849 1 108.645 83.635 0.000
10850 1 109.355 84.865 0.000
10851 3 109.355 84.865 -1.100
10852 1 110.776 84.865 0.000
10853 1 111.486 83.635 0.000
10854 1 112.906 83.635 0.000
10855 1 113.616 84.865 0.000
10856 1 115.036 84.865 0.000
10857 1 115.746 83.635 0.000
10858 1 117.167 83.635 0.000
10859 1 117.877 84.865 0.000
10860 3 117.877 84.865 -1.100
10861 1 119.297 84.865 0.000
10862 1 120.007 83.635 0.000
10863 1 121.427 83.635 0.000
10864 1 122.137 84.865 0.000
10865 1 123.557 84.865 0.000
10866 1 124.267 83.635 0.000
10867 1 125.688 83.635 0.000
10868 1 126.398 84.865 0.000
10869 1 127.818 84.865 0.000
10870 1 128.528 83.635 0.000
10871 1 129.948 83.635 0.000
10872 1 130.658 84.865 0.000
10873 1 132.079 84.865 0.000
10874 1 132.789 83.635 0.000
10875 1 134.209 83.635 0.000
10876 1 134.919 84.865 0.000
10877 1 136.339 84.865 0.000
10878 3 136.339 84.865 1.100
10879 1 137.049 83.635 0.000
10880 1 138.470 83.635 0.000
10881 1 139.180 84.865 0.000
10882 1 140.600 84.865 0.000
10883 1 141.310 83.635 0.000
10884 1 142.730 83.635 0.000
10885 1 143.440 84.865 0.000
10886 1 144.860 84.865 0.000
10887 1 145.571 83.635 0.000
10888 1 146.991 83.635 0.000
10889 1 147.701 84.865 0.000
10890 1 149.121 84.865 0.000
10891 1 149.831 83.635 0.000
10892 2 149.831 83.635 1.500
10893 3 150.931 83.635 1.633
10894 3 149.281 84.588 1.633
10895 3 149.281 82.683 1.633
10896 1 151.251 83.635 0.000
10897 1 151.961 84.865 0.000
10898 3 151.961 84.865 -1.100
10899 1 153.382 84.865 0.000
10900 2 153.382 84.865 1.500
10901 3 154.482 84.865 1.633
10902 3 152.832 85.818 1.633
10903 3 152.832 83.912 1.633
10904 1 154.092 83.635 0.000
10905 1 155.512 83.635 0.000
10906 1 156.222 84.865 0.000
10907 1 157.642 84.865 0.000
10908 1 158.352 83.635 0.000
10909 1 159.773 83.635 0.000
10910 1 160.483 84.865 0.000
10911 1 161.903 84.865 0.000
10912 1 162.613 83.635 0.000
10913 1 164.033 83.635 0.000
10914 1 164.743 84.865 0.000
10915 2 164.743 84.865 -1.500
10916 3 165.843 84.865 -1.633
10917 3 164.193 85.818 -1.633
10918 3 164.193 83.912 -1.633
10919 1 166.163 84.865 0.000
10920 1 166.874 83.635 0.000
10921 1 168.294 83.635 0.000
10922 1 169.004 84.865 0.000
10923 1 170.424 84.865 0.000
10924 1 171.134 83.635 0.000
10925 1 172.554 83.635 0.000
10926 1 173.264 84.865 0.000
10927 1 174.685 84.865 0.000
10928 1 175.395 83.635 0.000
10929 1 176.815 83.635 0.000
10930 1 177.525 84.865 0.000
10931 1 178.945 84.865 0.000
10932 1 179.655 83.635 0.000
10933 3 179.655 83.635 1.100
10934 1 181.076 83.635 0.000
10935 1 181.786 84.865 0.000
10936 1 183.206 84.865 0.000
10937 1 183.916 83.635 0.000
10938 1 185.336 83.635 0.000
10939 1 186.046 84.865 0.000
10940 1 187.466 84.865 0.000
10941 1 188.177 83.635 0.000
10942 2 188.177 83.635 -1.500
10943 3 189.277 83.635 -1.633
10944 3 187.627 84.588 -1.633
10945 3 187.627 82.683 -1.633
10946 1 189.597 83.635 0.000
10947 1 190.307 84.865 0.000
10948 2 190.307 84.865 1.500
10949 3 191.407 84.865 1.633
10950 3 189.757 85.818 1.633
10951 3 189.757 83.912 1.633
10952 1 191.727 84.865 0.000
10953 1 192.437 83.635 0.000
10954 1 193.857 83.635 0.000
10955 1 194.567 84.865 0.000
10956 1 195.988 84.865 0.000
10957 1 196.698 83.635 0.000
10958 1 198.118 83.635 0.000
10959 1 198.828 84.865 0.000
10960 1 200.248 84.865 0.000
10961 1 200.958 83.635 0.000
10962 3 200.958 83.635 -1.100
10963 1 202.379 83.635 0.000
10964 1 203.089 84.865 0.000
10965 1 204.509 84.865 0.000
10966 2 204.509 84.865 -1.500
10967 3 205.609 84.865 -1.633
10968 3 203.959 85.818 -1.633
10969 3 203.959 83.912 -1.633
10970 1 205.219 83.635 0.000
10971 3 205.219 83.635 1.100
10972 1 206.639 83.635 0.000
10973 1 207.349 84.865 0.000
10974 3 207.349 84.865 -1.100
10975 1 208.769 84.865 0.000
10976 1 209.480 83.635 0.000
10977 1 210.900 83.635 0.000
10978 1 211.610 84.865 0.000
10979 1 213.030 84.865 0.000
10980 1 213.740 83.635 0.000
10981 1 215.160 83.635 0.000
10982 1 215.870 84.865 0.000
10983 1 217.291 84.865 0.000
10984 1 218.001 83.635 0.000
10985 2 218.001 83.635 -1.500
10986 3 219.101 83.635 -1.633
10987 3 217.451 84.588 -1.633
10988 3 217.451 82.683 -1.633
10989 1 219.421 83.635 0.000
10990 1 220.131 84.865 0.000
10991 1 221.551 84.865 0.000
10992 1 222.261 83.635 0.000
10993 1 223.681 83.635 0.000
10994 1 224.392 84.865 0.000
10995 1 225.812 84.865 0.000
10996 1 226.522 83.635 0.000
10997 1 227.942 83.635 0.000
10998 1 228.652 84.865 0.000
10999 2 228.652 84.865 1.500
11000 3 229.752 84.865 1.633
11001 3 228.102 85.818 1.633
11002 3 228.102 83.912 1.633
11003 1 230.072 84.865 0.000
11004 1 230.783 83.635 0.000
11005 3 230.783 83.635 1.100
11006 1 232.203 83.635 0.000
11007 1 232.913 84.865 0.000
11008 1 234.333 84.865 0.000
11009 1 235.043 83.635 0.000
11010 3 235.043 83.635 -1.100
11011 1 236.463 83.635 0.000
11012 1 237.173 84.865 0.000
11013 2 237.173 84.865 -1.500
11014 3 238.273 84.865 -1.633
11015 3 236.623 85.818 -1.633
11016 3 236.623 83.912 -1.633
11017 1 238.594 84.865 0.000
11018 1 239.304 83.635 0.000
11019 1 240.724 83.635 0.000
11020 1 241.434 84.865 0.000
11021 1 242.854 84.865 0.000
11022 3 242.854 84.865 1.100
11023 1 243.564 83.635 0.000
11024 1 244.985 83.635 0.000
11025 1 245.695 84.865 0.000
11026 2 245.695 84.865 1.500
11027 3 246.795 84.865 1.633
11028 3 245.145 85.818 1.633
11029 3 245.145 83.912 1.633
11030 1 247.115 84.865 0.000
11031 1 247.825 83.635 0.000
11032 1 249.245 83.635 0.000
11033 1 249.955 84.865 0.000
11034 1 0.000 87.325 0.000
11035 1 0.710 86.095 0.000
11036 1 2.130 86.095 0.000
11037 1 2.840 87.325 0.000
11038 1 4.261 87.325 0.000
11039 1 4.971 86.095 0.000
11040 1 6.391 86.095 0.000
11041 3 6.391 86.095 -1.100
11042 1 7.101 87.325 0.000
11043 1 8.521 87.325 0.000
11044 1 9.231 86.095 0.000
11045 1 10.652 86.095 0.000
11046 1 11.362 87.325 0.000
11047 3 11.362 87.325 -1.100
11048 1 12.782 87.325 0.000
11049 1 13.492 86.095 0.000
11050 1 14.912 86.095 0.000
11051 1 15.622 87.325 0.000
11052 3 15.622 87.325 1.100
11053 1 17.042 87.325 0.000
11054 1 17.753 86.095 0.000
11055 1 19.173 86.095 0.000
11056 3 19.173 86.095 1.100
11057 1 19.883 87.325 0.000
11058 1 21.303 87.325 0.000
11059 3 21.303 87.325 -1.100
11060 1 22.013 86.095 0.000
11061 1 23.433 86.095 0.000
11062 1 24.143 87.325 0.000
11063 1 25.564 87.325 0.000
11064 1 26.274 86.095 0.000
11065 1 27.694 86.095 0.000
11066 1 28.404 87.325 0.000
11067 1 29.824 87.325 0.000
11068 1 30.534 86.095 0.000
11069 1 31.954 86.095 0.000
11070 1 32.665 87.325 0.000
11071 2 32.665 87.325 1.500
11072 3 33.765 87.325 1.633
11073 3 32.115 88.278 1.633
11074 3 32.115 86.372 1.633
11075 1 34.085 87.325 0.000
11076 1 34.795 86.095 0.000
11077 1 36.215 86.095 0.000
11078 1 36.925 87.325 0.000
11079 3 36.925 87.325 1.100
11080 1 38.345 87.325 0.000
11081 1 39.055 86.095 0.000
11082 1 40.476 86.095 0.000
11083 1 41.186 87.325 0.000
11084 1 42.606 87.325 0.000
11085 3 42.606 87.325 -1.100
11086 1 43.316 86.095 0.000
11087 1 44.736 86.095 0.000
11088 1 45.446 87.325 0.000
11089 1 46.867 87.325 0.000
11090 1 47.577 86.095 0.000
11091 3 47.577 86.095 -1.100
11092 1 48.997 86.095 0.000
11093 1 49.707 87.325 0.000
11094 1 51.127 87.325 0.000
11095 2 51.127 87.325 -1.500
11096 3 52.227 87.325 -1.633
11097 3 50.577 88.278 -1.633
11098 3 50.577 86.372 -1.633
11099 1 51.837 86.095 0.000
11100 1 53.258 86.095 0.000
11101 2 53.258 86.095 1.500
11102 3 54.358 86.095 1.633
11103 3 52.708 87.048 1.633
11104 3 52.708 85.142 1.633
11105 1 53.968 87.325 0.000
11106 1 55.388 87.325 0.000
11107 1 56.098 86.095 0.000
11108 1 57.518 86.095 0.000
11109 1 58.228 87.325 0.000
11110 3 58.228 87.325 1.100
11111 1 59.648 87.325 0.000
11112 1 60.358 86.095 0.000
11113 1 61.779 86.095 0.000
11114 1 62.489 87.325 0.000
11115 2 62.489 87.325 1.500
11116 3 63.589 87.325 1.633
11117 3 61.939 88.278 1.633
11118 3 61.939 86.372 1.633
11119 1 63.909 87.325 0.000
11120 1 64.619 86.095 0.000
11121 1 66.039 86.095 0.000
11122 1 66.749 87.325 0.000
11123 1 68.170 87.325 0.000
11124 1 68.880 86.095 0.000
11125 1 70.300 86.095 0.000
11126 1 71.010 87.325 0.000
11127 1 72.430 87.325 0.000
11128 1 73.140 86.095 0.000
11129 2 73.140 86.095 -1.500
11130 3 74.240 86.095 -1.633
11131 3 72.590 87.048 -1.633
11132 3 72.590 85.142 -1.633
11133 1 74.561 86.095 0.000
11134 1 75.271 87.325 0.000
11135 1 76.691 87.325 0.000
11136 1 77.401 86.095 0.000
11137 2 77.401 86.095 -1.500
11138 3 78.501 86.095 -1.633
11139 3 76.851 87.048 -1.633
11140 3 76.851 85.142 -1.633
11141 1 78.821 86.095 0.000
11142 1 79.531 87.325 0.000
11143 1 80.951 87.325 0.000
11144 3 80.951 87.325 1.100
11145 1 81.662 86.095 0.000
11146 1 83.082 86.095 0.000
11147 1 83.792 87.325 0.000
11148 1 85.212 87.325 0.000
11149 1 85.922 86.095 0.000
11150 1 87.342 86.095 0.000
11151 1 88.052 87.325 0.000
11152 1 89.473 87.325 0.000
11153 1 90.183 86.095 0.000
11154 1 91.603 86.095 0.000
11155 1 92.313 87.325 0.000
11156 1 93.733 87.325 0.000
11157 1 94.443 86.095 0.000
11158 1 95.864 86.095 0.000
11159 2 95.864 86.095 1.500
11160 3 96.964 86.095 1.633
11161 3 95.314 87.048 1.633
11162 3 95.314 85.142 1.633
11163 1 96.574 87.325 0.000
11164 1 97.994 87.325 0.000
11165 1 98.704 86.095 0.000
11166 1 100.124 86.095 0.000
11167 1 100.834 87.325 0.000
11168 1 102.254 87.325 0.000
11169 1 102.965 86.095 0.000
11170 3 102.965 86.095 -1.100
11171 1 104.385 86.095 0.000
11172 1 105.095 87.325 0.000
11173 1 106.515 87.325 0.000
11174 1 107.225 86.095 0.000
11175 1 108.645 86.095 0.000
11176 1 109.355 87.325 0.000
11177 3 109.355 87.325 -1.100
11178 1 110.776 87.325 0.000
11179 1 111.486 86.095 0.000
11180 2 111.486 86.095 1.500
11181 3 112.586 86.095 1.633
11182 3 110.936 87.048 1.633
11183 3 110.936 85.142 1.633
11184 1 112.906 86.095 0.000
11185 1 113.616 87.325 0.000
11186 1 115.036 87.325 0.000
11187 1 115.746 86.095 0.000
11188 1 117.167 86.095 0.000
11189 1 117.877 87.325 0.000
11190 1 119.297 87.325 0.000
11191 1 120.007 86.095 0.000
11192 1 121.427 86.095 0.000
11193 1 122.137 87.325 0.000
11194 1 123.557 87.325 0.000
11195 3 123.557 87.325 1.100
11196 1 124.267 86.095 0.000
11197 1 125.688 86.095 0.000
11198 1 126.398 87.325 0.000
11199 1 127.818 87.325 0.000
11200 3 127.818 87.325 1.100
11201 1 128.528 86.095 0.000
11202 1 129.948 86.095 0.000
11203 1 130.658 87.325 0.000
11204 1 132.079 87.325 0.000
11205 1 132.789 86.095 0.000
11206 1 134.209 86.095 0.000
11207 1 134.919 87.325 0.000
11208 1 136.339 87.325 0.000
11209 1 137.049 86.095 0.000
11210 1 138.470 86.095 0.000
11211 1 139.180 87.325 0.000
11212 1 140.600 87.325 0.000
11213 3 140.600 87.325 -1.100
11214 1 141.310 86.095 0.000
11215 1 142.730 86.095 0.000
11216 3 142.730 86.095 1.100
11217 1 143.440 87.325 0.000
11218 1 144.860 87.325 0.000
11219 1 145.571 86.095 0.000
11220 3 145.571 86.095 -1.100
11221 1 146.991 86.095 0.000
11222 1 147.701 87.325 0.000
11223 2 147.701 87.325 -1.500
11224 3 148.801 87.325 -1.633
11225 3 147.151 88.278 -1.633
11226 3 147.151 86.372 -1.633
11227 1 149.121 87.325 0.000
11228 1 149.831 86.095 0.000
11229 1 151.251 86.095 0.000
11230 1 151.961 87.325 0.000
11231 1 153.382 87.325 0.000
11232 1 154.092 86.095 0.000
11233 1 155.512 86.095 0.000
11234 1 156.222 87.325 0.000
11235 1 157.642 87.325 0.000
11236 1 158.352 86.095 0.000
11237 2 158.352 86.095 1.500
11238 3 159.452 86.095 1.633
11239 3 157.802 87.048 1.633
11240 3 157.802 85.142 1.633
11241 1 159.773 86.095 0.000
11242 1 160.483 87.325 0.000
11243 1 161.903 87.325 0.000
11244 1 162.613 86.095 0.000
11245 3 162.613 86.095 1.100
11246 1 164.033 86.095 0.000
11247 1 164.743 87.325 0.000
11248 1 166.163 87.325 0.000
11249 1 166.874 86.095 0.000
11250 2 166.874 86.095 1.500
11251 3 167.974 86.095 1.633
11252 3 166.323 87.048 1.633
11253 3 166.323 85.142 1.633
11254 1 168.294 86.095 0.000
11255 1 169.004 87.325 0.000
11256 1 170.424 87.325 0.000
11257 1 171.134 86.095 0.000
11258 1 172.554 86.095 0.000
11259 1 173.264 87.325 0.000
11260 1 174.685 87.325 0.000
11261 1 175.395 86.095 0.000
11262 1 176.815 86.095 0.000
11263 1 177.525 87.325 0.000
11264 1 178.945 87.325 0.000
11265 2 178.945 87.325 -1.500
11266 3 180.045 87.325 -1.633
11267 3 178.395 88.278 -1.633
11268 3 178.395 86.372 -1.633
11269 1 179.655 86.095 0.000
11270 1 181.076 86.095 0.000
11271 1 181.786 87.325 0.000
11272 1 183.206 87.325 0.000
11273 3 183.206 87.325 1.100
11274 1 183.916 86.095 0.000
11275 1 185.336 86.095 0.000
11276 3 185.336 86.095 1.100
11277 1 186.046 87.325 0.000
11278 1 187.466 87.325 0.000
11279 1 188.177 86.095 0.000
11280 1 189.597 86.095 0.000
11281 3 189.597 86.095 -1.100
11282 1 190.307 87.325 0.000
11283 1 191.727 87.325 0.000
11284 2 191.727 87.325 -1.500
11285 3 192.827 87.325 -1.633
11286 3 191.177 88.278 -1.633
11287 3 191.177 86.372 -1.633
11288 1 192.437 86.095 0.000
11289 1 193.857 86.095 0.000
11290 3 193.857 86.095 1.100
11291 1 194.567 87.325 0.000
11292 1 195.988 87.325 0.000
11293 1 196.698 86.095 0.000
11294 1 198.118 86.095 0.000
11295 1 198.828 87.325 0.000
11296 1 200.248 87.325 0.000
11297 1 200.958 86.095 0.000
11298 1 202.379 86.095 0.000
11299 1 203.089 87.325 0.000
11300 1 204.509 87.325 0.000
11301 1 205.219 86.095 0.000
11302 1 206.639 86.095 0.000
11303 1 207.349 87.325 0.000
11304 1 208.769 87.325 0.000
11305 2 208.769 87.325 -1.500
11306 3 209.869 87.325 -1.633
11307 3 208.219 88.278 -1.633
11308 3 208.219 86.372 -1.633
11309 1 209.480 86.095 0.000
11310 1 210.900 86.095 0.000
11311 1 211.610 87.325 0.000
11312 1 213.030 87.325 0.000
11313 1 213.740 86.095 0.000
11314 1 215.160 86.095 0.000
11315 2 215.160 86.095 1.500
11316 3 216.260 86.095 1.633
11317 3 214.610 87.048 1.633
11318 3 214.610 85.142 1.633
11319 1 215.870 87.325 0.000
11320 1 217.291 87.325 0.000
11321 1 218.001 86.095 0.000
11322 1 219.421 86.095 0.000
11323 1 220.131 87.325 0.000
11324 1 221.551 87.325 0.000
11325 1 222.261 86.095 0.000
11326 3 222.261 86.095 -1.100
11327 1 223.681 86.095 0.000
11328 1 224.392 87.325 0.000
11329 1 225.812 87.325 0.000
11330 1 226.522 86.095 0.000
11331 1 227.942 86.095 0.000
11332 1 228.652 87.325 0.000
11333 1 230.072 87.325 0.000
11334 1 230.783 86.095 0.000
11335 1 232.203 86.095 0.000
11336 1 232.913 87.325 0.000
11337 1 234.333 87.325 0.000
11338 1 235.043 86.095 0.000
11339 1 236.463 86.095 0.000
11340 1 237.173 87.325 0.000
11341 2 237.173 87.325 1.500
11342 3 238.273 87.325 1.633
11343 3 236.623 88.278 1.633
11344 3 236.623 86.372 1.633
11345 1 238.594 87.325 0.000
11346 1 239.304 86.095 0.000
11347 1 240.724 86.095 0.000
11348 1 241.434 87.325 0.000
11349 1 242.854 87.325 0.000
11350 1 243.564 86.095 0.000
11351 1 244.985 86.095 0.000
11352 1 245.695 87.325 0.000
11353 2 245.695 87.325 -1.500
11354 3 246.795 87.325 -1.633
11355 3 245.145 88.278 -1.633
11356 3 245.145 86.372 -1.633
11357 1 247.115 87.325 0.000
11358 1 247.825 86.095 0.000
11359 1 249.245 86.095 0.000
11360 2 249.245 86.095 1.500
11361 3 250.345 86.095 1.633
11362 3 248.695 87.048 1.633
11363 3 248.695 85.142 1.633
11364 1 249.955 87.325 0.000
11365 1 0.000 89.785 0.000
11366 3 0.000 89.785 1.100
11367 1 0.710 88.555 0.000
11368 2 0.710 88.555 -1.500
11369 3 1.810 88.555 -1.633
11370 3 0.160 89.508 -1.633
11371 3 0.160 87.602 -1.633
11372 1 2.130 88.555 0.000
11373 1 2.840 89.785 0.000
11374 1 4.261 89.785 0.000
11375 1 4.971 88.555 0.000
11376 2 4.971 88.555 1.500
11377 3 6.071 88.555 1.633
11378 3 4.421 89.508 1.633
11379 3 4.421 87.602 1.633
11380 1 6.391 88.555 0.000
11381 1 7.101 89.785 0.000
11382 1 8.521 89.785 0.000
11383 1 9.231 88.555 0.000
11384 3 9.231 88.555 1.100
11385 1 10.652 88.555 0.000
11386 1 11.362 89.785 0.000
11387 1 12.782 89.785 0.000
11388 3 12.782 89.785 -1.100
11389 1 13.492 88.555 0.000
11390 1 14.912 88.555 0.000
11391 1 15.622 89.785 0.000
11392 3 15.622 89.785 -1.100
11393 1 17.042 89.785 0.000
11394 1 17.753 88.555 0.000
11395 1 19.173 88.555 0.000
11396 1 19.883 89.785 0.000
11397 1 21.303 89.785 0.000
11398 1 22.013 88.555 0.000
11399 1 23.433 88.555 0.000
11400 1 24.143 89.785 0.000
11401 3 24.143 89.785 1.100
11402 1 25.564 89.785 0.000
11403 1 26.274 88.555 0.000
11404 3 26.274 88.555 -1.100
11405 1 27.694 88.555 0.000
11406 1 28.404 89.785 0.000
11407 3 28.404 89.785 1.100
11408 1 29.824 89.785 0.000
11409 1 30.534 88.555 0.000
11410 1 31.954 88.555 0.000
11411 1 32.665 89.785 0.000
11412 1 34.085 89.785 0.000
11413 1 34.795 88.555 0.000
11414 1 36.215 88.555 0.000
11415 1 36.925 89.785 0.000
11416 2 36.925 89.785 1.500
11417 3 38.025 89.785 1.633
11418 3 36.375 90.737 1.633
11419 3 36.375 88.832 1.633
11420 1 38.345 89.785 0.000
11421 1 39.055 88.555 0.000
11422 1 40.476 88.555 0.000
11423 3 40.476 88.555 -1.100
11424 1 41.186 89.785 0.000
11425 1 42.606 89.785 0.000
11426 1 43.316 88.555 0.000
11427 1 44.736 88.555 0.000
11428 1 45.446 89.785 0.000
11429 1 46.867 89.785 0.000
11430 1 47.577 88.555 0.000
11431 1 48.997 88.555 0.000
11432 1 49.707 89.785 0.000
11433 3 49.707 89.785 -1.100
11434 1 51.127 89.785 0.000
11435 3 51.127 89.785 1.100
11436 1 51.837 88.555 0.000
11437 1 53.258 88.555 0.000
11438 1 53.968 89.785 0.000
11439 1 55.388 89.785 0.000
11440 2 55.388 89.785 -1.500
11441 3 56.488 89.785 -1.633
11442 3 54.838 90.737 -1.633
11443 3 54.838 88.832 -1.633
11444 1 56.098 88.555 0.000
11445 1 57.518 88.555 0.000
11446 1 58.228 89.785 0.000
11447 1 59.648 89.785 0.000
11448 2 59.648 89.785 1.500
11449 3 60.748 89.785 1.633
11450 3 59.098 90.737 1.633
11451 3 59.098 88.832 1.633
11452 1 60.358 88.555 0.000
11453 3 60.358 88.555 -1.100
11454 1 61.779 88.555 0.000
11455 1 62.489 89.785 0.000
11456 1 63.909 89.785 0.000
11457 1 64.619 88.555 0.000
11458 1 66.039 88.555 0.000
11459 1 66.749 89.785 0.000
11460 1 68.170 89.785 0.000
11461 1 68.880 88.555 0.000
11462 1 70.300 88.555 0.000
11463 1 71.010 89.785 0.000
11464 1 72.430 89.785 0.000
11465 2 72.430 89.785 1.500
11466 3 73.530 89.785 1.633
11467 3 71.880 90.737 1.633
11468 3 71.880 88.832 1.633
11469 1 73.140 88.555 0.000
11470 1 74.561 88.555 0.000
11471 1 75.271 89.785 0.000
11472 1 76.691 89.785 0.000
11473 1 77.401 88.555 0.000
11474 1 78.821 88.555 0.000
11475 1 79.531 89.785 0.000
11476 1 80.951 89.785 0.000
11477 1 81.662 88.555 0.000
11478 1 83.082 88.555 0.000
11479 3 83.082 88.555 1.100
11480 1 83.792 89.785 0.000
11481 1 85.212 89.785 0.000
11482 1 85.922 88.555 0.000
11483 1 87.342 88.555 0.000
11484 2 87.342 88.555 -1.500
11485 3 88.442 88.555 -1.633
11486 3 86.792 89.508 -1.633
11487 3 86.792 87.602 -1.633
11488 1 88.052 89.785 0.000
11489 1 89.473 89.785 0.000
11490 2 89.473 89.785 1.500
11491 3 90.573 89.785 1.633
11492 3 88.923 90.737 1.633
11493 3 88.923 88.832 1.633
11494 1 90.183 88.555 0.000
11495 1 91.603 88.555 0.000
11496 1 92.313 89.785 0.000
11497 1 93.733 89.785 0.000
11498 1 94.443 88.555 0.000
11499 3 94.443 88.555 -1.100
11500 1 95.864 88.555 0.000
11501 1 96.574 89.785 0.000
11502 1 97.994 89.785 0.000
11503 1 98.704 88.555 0.000
11504 1 100.124 88.555 0.000
11505 1 100.834 89.785 0.000
11506 2 100.834 89.785 1.500
11507 3 101.934 89.785 1.633
11508 3 100.284 90.737 1.633
11509 3 100.284 88.832 1.633
11510 1 102.254 89.785 0.000
11511 1 102.965 88.555 0.000
11512 1 104.385 88.555 0.000
11513 1 105.095 89.785 0.000
11514 1 106.515 89.785 0.000
11515 1 107.225 88.555 0.000
11516 3 107.225 88.555 1.100
11517 1 108.645 88.555 0.000
11518 1 109.355 89.785 0.000
11519 1 110.776 89.785 0.000
11520 2 110.776 89.785 -1.500
11521 3 111.876 89.785 -1.633
11522 3 110.226 90.737 -1.633
11523 3 110.226 88.832 -1.633
11524 1 111.486 88.555 0.000
11525 1 112.906 88.555 0.000
11526 1 113.616 89.785 0.000
11527 1 115.036 89.785 0.000
11528 1 115.746 88.555 0.000
11529 3 115.746 88.555 -1.100
11530 1 117.167 88.555 0.000
11531 1 117.877 89.785 0.000
11532 1 119.297 89.785 0.000
11533 1 120.007 88.555 0.000
11534 1 121.427 88.555 0.000
11535 1 122.137 89.785 0.000
11536 1 123.557 89.785 0.000
11537 1 124.267 88.555 0.000
11538 1 125.688 88.555 0.000
11539 2 125.688 88.555 1.500
11540 3 126.788 88.555 1.633
11541 3 125.138 89.508 1.633
11542 3 125.138 87.602 1.633
11543 1 126.398 89.785 0.000
11544 1 127.818 89.785 0.000
11545 1 128.528 88.555 0.000
11546 1 129.948 88.555 0.000
11547 1 130.658 89.785 0.000
11548 1 132.079 89.785 0.000
11549 1 132.789 88.555 0.000
11550 1 134.209 88.555 0.000
11551 2 134.209 88.555 -1.500
11552 3 135.309 88.555 -1.633
11553 3 133.659 89.508 -1.633
11554 3 133.659 87.602 -1.633
11555 1 134.919 89.785 0.000
11556 1 136.339 89.785 0.000
11557 1 137.049 88.555 0.000
11558 1 138.470 88.555 0.000
11559 1 139.180 89.785 0.000
11560 1 140.600 89.785 0.000
11561 1 141.310 88.555 0.000
11562 1 142.730 88.555 0.000
11563 1 143.440 89.785 0.000
11564 1 144.860 89.785 0.000
11565 1 145.571 88.555 0.000
11566 1 146.991 88.555 0.000
11567 1 147.701 89.785 0.000
11568 1 149.121 89.785 0.000
11569 1 149.831 88.555 0.000
11570 1 151.251 88.555 0.000
11571 1 151.961 89.785 0.000
11572 1 153.382 89.785 0.000
11573 1 154.092 88.555 0.000
11574 1 155.512 88.555 0.000
11575 3 155.512 88.555 -1.100
11576 1 156.222 89.785 0.000
11577 1 157.642 89.785 0.000
11578 1 158.352 88.555 0.000
11579 1 159.773 88.555 0.000
11580 3 159.773 88.555 1.100
11581 1 160.483 89.785 0.000
11582 3 160.483 89.785 1.100
11583 1 161.903 89.785 0.000
11584 1 162.613 88.555 0.000
11585 1 164.033 88.555 0.000
11586 1 164.743 89.785 0.000
11587 1 166.163 89.785 0.000
11588 1 166.874 88.555 0.000
11589 1 168.294 88.555 0.000
11590 1 169.004 89.785 0.000
11591 1 170.424 89.785 0.000
11592 3 170.424 89.785 1.100
11593 1 171.134 88.555 0.000
11594 1 172.554 88.555 0.000
11595 3 172.554 88.555 -1.100
11596 1 173.264 89.785 0.000
11597 1 174.685 89.785 0.000
11598 1 175.395 88.555 0.000
11599 1 176.815 88.555 0.000
11600 1 177.525 89.785 0.000
11601 1 178.945 89.785 0.000
11602 1 179.655 88.555 0.000
11603 1 181.076 88.555 0.000
11604 1 181.786 89.785 0.000
11605 1 183.206 89.785 0.000
11606 1 183.916 88.555 0.000
11607 1 185.336 88.555 0.000
11608 1 186.046 89.785 0.000
11609 2 186.046 89.785 -1.500
11610 3 187.146 89.785 -1.633
11611 3 185.496 90.737 -1.633
11612 3 185.496 88.832 -1.633
11613 1 187.466 89.785 0.000
11614 1 188.177 88.555 0.000
11615 1 189.597 88.555 0.000
11616 1 190.307 89.785 0.000
11617 2 190.307 89.785 1.500
11618 3 191.407 89.785 1.633
11619 3 189.757 90.737 1.633
11620 3 189.757 88.832 1.633
11621 1 191.727 89.785 0.000
11622 1 192.437 88.555 0.000
11623 1 193.857 88.555 0.000
11624 1 194.567 89.785 0.000
11625 3 194.567 89.785 1.100
11626 1 195.988 89.785 0.000
11627 1 196.698 88.555 0.000
11628 1 198.118 88.555 0.000
11629 1 198.828 89.785 0.000
11630 2 198.828 89.785 -1.500
11631 3 199.928 89.785 -1.633
11632 3 198.278 90.737 -1.633
11633 3 198.278 88.832 -1.633
11634 1 200.248 89.785 0.000
11635 1 200.958 88.555 0.000
11636 1 202.379 88.555 0.000
11637 1 203.089 89.785 0.000
11638 2 203.089 89.785 -1.500
11639 3 204.189 89.785 -1.633
11640 3 202.539 90.737 -1.633
11641 3 202.539 88.832 -1.633
11642 1 204.509 89.785 0.000
11643 1 205.219 88.555 0.000
11644 1 206.639 88.555 0.000
11645 1 207.349 89.785 0.000
11646 1 208.769 89.785 0.000
11647 1 209.480 88.555 0.000
11648 1 210.900 88.555 0.000
11649 1 211.610 89.785 0.000
11650 1 213.030 89.785 0.000
11651 1 213.740 88.555 0.000
11652 1 215.160 88.555 0.000
11653 1 215.870 89.785 0.000
11654 1 217.291 89.785 0.000
11655 1 218.001 88.555 0.000
11656 1 219.421 88.555 0.000
11657 1 220.131 89.785 0.000
11658 1 221.551 89.785 0.000
11659 1 222.261 88.555 0.000
11660 1 223.681 88.555 0.000
11661 3 223.681 88.555 -1.100
11662 1 224.392 89.785 0.000
11663 1 225.812 89.785 0.000
11664 1 226.522 88.555 0.000
11665 1 227.942 88.555 0.000
11666 1 228.652 89.785 0.000
11667 1 230.072 89.785 0.000
11668 1 230.783 88.555 0.000
11669 1 232.203 88.555 0.000
11670 2 232.203 88.555 1.500
11671 3 233.303 88.555 1.633
11672 3 231.653 89.508 1.633
11673 3 231.653 87.602 1.633
11674 1 232.913 89.785 0.000
11675 1 234.333 89.785 0.000
11676 1 235.043 88.555 0.000
11677 1 236.463 88.555 0.000
11678 1 237.173 89.785 0.000
11679 1 238.594 89.785 0.000
11680 1 239.304 88.555 0.000
11681 1 240.724 88.555 0.000
11682 1 241.434 89.785 0.000
11683 1 242.854 89.785 0.000
11684 1 243.564 88.555 0.000
11685 1 244.985 88.555 0.000
11686 1 245.695 89.785 0.000
11687 1 247.115 89.785 0.000
11688 1 247.825 88.555 0.000
11689 1 249.245 88.555 0.000
11690 1 249.955 89.785 0.000
11691 1 0.000 92.245 0.000
11692 1 0.710 91.015 0.000
11693 1 2.130 91.015 0.000
11694 3 2.130 91.015 -1.100
11695 1 2.840 92.245 0.000
11696 3 2.840 92.245 -1.100
11697 1 4.261 92.245 0.000
11698 1 4.971 91.015 0.000
11699 1 6.391 91.015 0.000
11700 1 7.101 92.245 0.000
11701 3 7.101 92.245 -1.100
11702 1 8.521 92.245 0.000
11703 1 9.231 91.015 0.000
11704 1 10.652 91.015 0.000
11705 1 11.362 92.245 0.000
11706 1 12.782 92.245 0.000
11707 1 13.492 91.015 0.000
11708 1 14.912 91.015 0.000
11709 1 15.622 92.245 0.000
11710 1 17.042 92.245 0.000
11711 1 17.753 91.015 0.000
11712 1 19.173 91.015 0.000
11713 1 19.883 92.245 0.000
11714 1 21.303 92.245 0.000
11715 1 22.013 91.015 0.000
11716 1 23.433 91.015 0.000
11717 1 24.143 92.245 0.000
11718 1 25.564 92.245 0.000
11719 1 26.274 91.015 0.000
11720 3 26.274 91.015 -1.100
11721 1 27.694 91.015 0.000
11722 1 28.404 92.245 0.000
11723 1 29.824 92.245 0.000
11724 1 30.534 91.015 0.000
11725 1 31.954 91.015 0.000
11726 1 32.665 92.245 0.000
11727 1 34.085 92.245 0.000
11728 1 34.795 91.015 0.000
11729 1 36.215 91.015 0.000
11730 1 36.925 92.245 0.000
11731 1 38.345 92.245 0.000
11732 1 39.055 91.015 0.000
11733 3 39.055 91.015 1.100
11734 1 40.476 91.015 0.000
11735 3 40.476 91.015 -1.100
11736 1 41.186 92.245 0.000
11737 2 41.186 92.245 1.500
11738 3 42.286 92.245 1.633
11739 3 40.636 93.197 1.633
11740 3 40.636 91.292 1.633
11741 1 42.606 92.245 0.000
11742 1 43.316 91.015 0.000
11743 1 44.736 91.015 0.000
11744 1 45.446 92.245 0.000
11745 1 46.867 92.245 0.000
11746 1 47.577 91.015 0.000
11747 1 48.997 91.015 0.000
11748 1 49.707 92.245 0.000
11749 1 51.127 92.245 0.000
11750 1 51.837 91.015 0.000
11751 2 51.837 91.015 -1.500
11752 3 52.937 91.015 -1.633
11753 3 51.287 91.967 -1.633
11754 3 51.287 90.062 -1.633
11755 1 53.258 91.015 0.000
11756 1 53.968 92.245 0.000
11757 1 55.388 92.245 0.000
11758 1 56.098 91.015 0.000
11759 1 57.518 91.015 0.000
11760 1 58.228 92.245 0.000
11761 1 59.648 92.245 0.000
11762 1 60.358 91.015 0.000
11763 1 61.779 91.015 0.000
11764 1 62.489 92.245 0.000
11765 1 63.909 92.245 0.000
11766 2 63.909 92.245 1.500
11767 3 65.009 92.245 1.633
11768 3 63.359 93.197 1.633
11769 3 63.359 91.292 1.633
11770 1 64.619 91.015 0.000
11771 1 66.039 91.015 0.000
11772 3 66.039 91.015 1.100
11773 1 66.749 92.245 0.000
11774 3 66.749 92.245 1.100
11775 1 68.170 92.245 0.000
11776 1 68.880 91.015 0.000
11777 1 70.300 91.015 0.000
11778 1 71.010 92.245 0.000
11779 2 71.010 92.245 -1.500
11780 3 72.110 92.245 -1.633
11781 3 70.460 93.197 -1.633
11782 3 70.460 91.292 -1.633
11783 1 72.430 92.245 0.000
11784 1 73.140 91.015 0.000
11785 1 74.561 91.015 0.000
11786 1 75.271 92.245 0.000
11787 1 76.691 92.245 0.000
11788 1 77.401 91.015 0.000
11789 2 77.401 91.015 1.500
11790 3 78.501 91.015 1.633
11791 3 76.851 91.967 1.633
11792 3 76.851 90.062 1.633
11793 1 78.821 91.015 0.000
11794 1 79.531 92.245 0.000
11795 1 80.951 92.245 0.000
11796 3 80.951 92.245 -1.100
11797 1 81.662 91.015 0.000
11798 1 83.082 91.015 0.000
11799 1 83.792 92.245 0.000
11800 1 85.212 92.245 0.000
11801 1 85.922 91.015 0.000
11802 3 85.922 91.015 1.100
11803 1 87.342 91.015 0.000
11804 1 88.052 92.245 0.000
11805 1 89.473 92.245 0.000
11806 1 90.183 91.015 0.000
11807 1 91.603 91.015 0.000
11808 1 92.313 92.245 0.000
11809 1 93.733 92.245 0.000
11810 1 94.443 91.015 0.000
11811 1 95.864 91.015 0.000
11812 1 96.574 92.245 0.000
11813 1 97.994 92.245 0.000
11814 1 98.704 91.015 0.000
11815 1 100.124 91.015 0.000
11816 1 100.834 92.245 0.000
11817 1 102.254 92.245 0.000
11818 1 102.965 91.015 0.000
11819 1 104.385 91.015 0.000
11820 1 105.095 92.245 0.000
11821 1 106.515 92.245 0.000
11822 1 107.225 91.015 0.000
11823 1 108.645 91.015 0.000
11824 3 108.645 91.015 1.100
11825 1 109.355 92.245 0.000
11826 1 110.776 92.245 0.000
11827 1 111.486 91.015 0.000
11828 1 112.906 91.015 0.000
11829 3 112.906 91.015 -1.100
11830 1 113.616 92.245 0.000
11831 1 115.036 92.245 0.000
11832 1 115.746 91.015 0.000
11833 1 117.167 91.015 0.000
11834 1 117.877 92.245 0.000
11835 2 117.877 92.245 -1.500
11836 3 118.977 92.245 -1.633
11837 3 117.327 93.197 -1.633
11838 3 117.327 91.292 -1.633
11839 1 119.297 92.245 0.000
11840 3 119.297 92.245 1.100
11841 1 120.007 91.015 0.000
11842 1 121.427 91.015 0.000
11843 1 122.137 92.245 0.000
11844 1 123.557 92.245 0.000
11845 1 124.267 91.015 0.000
11846 1 125.688 91.015 0.000
11847 1 126.398 92.245 0.000
11848 1 127.818 92.245 0.000
11849 1 128.528 91.015 0.000
11850 2 128.528 91.015 -1.500
11851 3 129.628 91.015 -1.633
11852 3 127.978 91.967 -1.633
11853 3 127.978 90.062 -1.633
11854 1 129.948 91.015 0.000
11855 3 129.948 91.015 1.100
11856 1 130.658 92.245 0.000
11857 3 130.658 92.245 1.100
11858 1 132.079 92.245 0.000
11859 1 132.789 91.015 0.000
11860 1 134.209 91.015 0.000
11861 1 134.919 92.245 0.000
11862 2 134.919 92.245 -1.500
11863 3 136.019 92.245 -1.633
11864 3 134.369 93.197 -1.633
11865 3 134.369 91.292 -1.633
11866 1 136.339 92.245 0.000
11867 1 137.049 91.015 0.000
11868 1 138.470 91.015 0.000
11869 1 139.180 92.245 0.000
11870 1 140.600 92.245 0.000
11871 1 141.310 91.015 0.000
11872 1 142.730 91.015 0.000
11873 1 143.440 92.245 0.000
11874 1 144.860 92.245 0.000
11875 1 145.571 91.015 0.000
11876 1 146.991 91.015 0.000
11877 1 147.701 92.245 0.000
11878 1 149.121 92.245 0.000
11879 3 149.121 92.245 -1.100
11880 1 149.831 91.015 0.000
11881 1 151.251 91.015 0.000
11882 1 151.961 92.245 0.000
11883 1 153.382 92.245 0.000
11884 1 154.092 91.015 0.000
11885 1 155.512 91.015 0.000
11886 3 155.512 91.015 -1.100
11887 1 156.222 92.245 0.000
11888 1 157.642 92.245 0.000
11889 1 158.352 91.015 0.000
11890 1 159.773 91.015 0.000
11891 3 159.773 91.015 1.100
11892 1 160.483 92.245 0.000
11893 1 161.903 92.245 0.000
11894 2 161.903 92.245 -1.500
11895 3 163.003 92.245 -1.633
11896 3 161.353 93.197 -1.633
11897 3 161.353 91.292 -1.633
11898 1 162.613 91.015 0.000
11899 1 164.033 91.015 0.000
11900 1 164.743 92.245 0.000
11901 1 166.163 92.245 0.000
11902 1 166.874 91.015 0.000
11903 1 168.294 91.015 0.000
11904 2 168.294 91.015 -1.500
11905 3 169.394 91.015 -1.633
11906 3 167.744 91.967 -1.633
11907 3 167.744 90.062 -1.633
11908 1 169.004 92.245 0.000
11909 1 170.424 92.245 0.000
11910 1 171.134 91.015 0.000
11911 1 172.554 91.015 0.000
11912 1 173.264 92.245 0.000
11913 2 173.264 92.245 1.500
11914 3 174.364 92.245 1.633
11915 3 172.714 93.197 1.633
11916 3 172.714 91.292 1.633
11917 1 174.685 92.245 0.000
11918 3 174.685 92.245 -1.100
11919 1 175.395 91.015 0.000
11920 1 176.815 91.015 0.000
11921 1 177.525 92.245 0.000
11922 1 178.945 92.245 0.000
11923 3 178.945 92.245 1.100
11924 1 179.655 91.015 0.000
11925 1 181.076 91.015 0.000
11926 1 181.786 92.245 0.000
11927 1 183.206 92.245 0.000
11928 1 183.916 91.015 0.000
11929 1 185.336 91.015 0.000
11930 1 186.046 92.245 0.000
11931 1 187.466 92.245 0.000
11932 3 187.466 92.245 -1.100
11933 1 188.177 91.015 0.000
11934 1 189.597 91.015 0.000
11935 1 190.307 92.245 0.000
11936 1 191.727 92.245 0.000
11937 1 192.437 91.015 0.000
11938 1 193.857 91.015 0.000
11939 1 194.567 92.245 0.000
11940 2 194.567 92.245 -1.500
11941 3 195.667 92.245 -1.633
11942 3 194.017 93.197 -1.633
11943 3 194.017 91.292 -1.633
11944 1 195.988 92.245 0.000
11945 1 196.698 91.015 0.000
11946 1 198.118 91.015 0.000
11947 1 198.828 92.245 0.000
11948 1 200.248 92.245 0.000
11949 1 200.958 91.015 0.000
11950 3 200.958 91.015 1.100
11951 1 202.379 91.015 0.000
11952 1 203.089 92.245 0.000
11953 1 204.509 92.245 0.000
11954 1 205.219 91.015 0.000
11955 1 206.639 91.015 0.000
11956 1 207.349 92.245 0.000
11957 1 208.769 92.245 0.000
11958 1 209.480 91.015 0.000
11959 1 210.900 91.015 0.000
11960 3 210.900 91.015 1.100
11961 1 211.610 92.245 0.000
11962 1 213.030 92.245 0.000
11963 1 213.740 91.015 0.000
11964 1 215.160 91.015 0.000
11965 1 215.870 92.245 0.000
11966 1 217.291 92.245 0.000
11967 1 218.001 91.015 0.000
11968 1 219.421 91.015 0.000
11969 1 220.131 92.245 0.000
11970 1 221.551 92.245 0.000
11971 1 222.261 91.015 0.000
11972 3 222.261 91.015 -1.100
11973 1 223.681 91.015 0.000
11974 1 224.392 92.245 0.000
11975 1 225.812 92.245 0.000
11976 1 226.522 91.015 0.000
11977 3 226.522 91.015 -1.100
11978 1 227.942 91.015 0.000
11979 1 228.652 92.245 0.000
11980 3 228.652 92.245 1.100
11981 1 230.072 92.245 0.000
11982 1 230.783 91.015 0.000
11983 1 232.203 91.015 0.000
11984 3 232.203 91.015 1.100
11985 1 232.913 92.245 0.000
11986 1 234.333 92.245 0.000
11987 1 235.043 91.015 0.000
11988 3 235.043 91.015 -1.100
11989 1 236.463 91.015 0.000
11990 1 237.173 92.245 0.000
11991 1 238.594 92.245 0.000
11992 1 239.304 91.015 0.000
11993 1 240.724 91.015 0.000
11994 2 240.724 91.015 -1.500
11995 3 241.824 91.015 -1.633
11996 3 240.174 91.967 -1.633
11997 3 240.174 90.062 -1.633
11998 1 241.434 92.245 0.000
11999 1 242.854 92.245 0.000
12000 1 243.564 91.015 0.000
12001 1 244.985 91.015 0.000
12002 3 244.985 91.015 1.100
12003 1 245.695 92.245 0.000
12004 2 245.695 92.245 -1.500
12005 3 246.795 92.245 -1.633
12006 3 245.145 93.197 -1.633
12007 3 245.145 91.292 -1.633
12008 1 247.115 92.245 0.000
12009 1 247.825 91.015 0.000
12010 1 249.245 91.015 0.000
12011 1 249.955 92.245 0.000
12012 1 0.000 94.705 0.000
12013 1 0.710 93.475 0.000
12014 1 2.130 93.475 0.000
12015 1 2.840 94.705 0.000
12016 1 4.261 94.705 0.000
12017 1 4.971 93.475 0.000
12018 1 6.391 93.475 0.000
12019 1 7.101 94.705 0.000
12020 1 8.521 94.705 0.000
12021 1 9.231 93.475 0.000
12022 3 9.231 93.475 -1.100
12023 1 10.652 93.475 0.000
12024 1 11.362 94.705 0.000
12025 1 12.782 94.705 0.000
12026 1 13.492 93.475 0.000
12027 1 14.912 93.475 0.000
12028 1 15.622 94.705 0.000
12029 1 17.042 94.705 0.000
12030 1 17.753 93.475 0.000
12031 1 19.173 93.475 0.000
12032 3 19.173 93.475 -1.100
12033 1 19.883 94.705 0.000
12034 1 21.303 94.705 0.000
12035 1 22.013 93.475 0.000
12036 1 23.433 93.475 0.000
12037 2 23.433 93.475 -1.500
12038 3 24.533 93.475 -1.633
12039 3 22.883 94.427 -1.633
12040 3 22.883 92.522 -1.633
12041 1 24.143 94.705 0.000
12042 1 25.564 94.705 0.000
12043 1 26.274 93.475 0.000
12044 3 26.274 93.475 -1.100
12045 1 27.694 93.475 0.000
12046 1 28.404 94.705 0.000
12047 1 29.824 94.705 0.000
12048 1 30.534 93.475 0.000
12049 1 31.954 93.475 0.000
12050 1 32.665 94.705 0.000
12051 1 34.085 94.705 0.000
12052 1 34.795 93.475 0.000
12053 1 36.215 93.475 0.000
12054 1 36.925 94.705 0.000
12055 2 36.925 94.705 -1.500
12056 3 38.025 94.705 -1.633
12057 3 36.375 95.657 -1.633
12058 3 36.375 93.752 -1.633
12059 1 38.345 94.705 0.000
12060 1 39.055 93.475 0.000
12061 3 39.055 93.475 -1.100
12062 1 40.476 93.475 0.000
12063 1 41.186 94.705 0.000
12064 1 42.606 94.705 0.000
12065 2 42.606 94.705 -1.500
12066 3 43.706 94.705 -1.633
12067 3 42.056 95.657 -1.633
12068 3 42.056 93.752 -1.633
12069 1 43.316 93.475 0.000
12070 1 44.736 93.475 0.000
12071 1 45.446 94.705 0.000
12072 1 46.867 94.705 0.000
12073 1 47.577 93.475 0.000
12074 1 48.997 93.475 0.000
12075 1 49.707 94.705 0.000
12076 1 51.127 94.705 0.000
12077 1 51.837 93.475 0.000
12078 3 51.837 93.475 -1.100
12079 1 53.258 93.475 0.000
12080 1 53.968 94.705 0.000
12081 2 53.968 94.705 -1.500
12082 3 55.068 94.705 -1.633
12083 3 53.418 95.657 -1.633
12084 3 53.418 93.752 -1.633
12085 1 55.388 94.705 0.000
12086 1 56.098 93.475 0.000
12087 1 57.518 93.475 0.000
12088 1 58.228 94.705 0.000
12089 1 59.648 94.705 0.000
12090 3 59.648 94.705 1.100
12091 1 60.358 93.475 0.000
12092 3 60.358 93.475 1.100
12093 1 61.779 93.475 0.000
12094 1 62.489 94.705 0.000
12095 1 63.909 94.705 0.000
12096 1 64.619 93.475 0.000
12097 1 66.039 93.475 0.000
12098 1 66.749 94.705 0.000
12099 1 68.170 94.705 0.000
12100 1 68.880 93.475 0.000
12101 1 70.300 93.475 0.000
12102 1 71.010 94.705 0.000
12103 1 72.430 94.705 0.000
12104 1 73.140 93.475 0.000
12105 1 74.561 93.475 0.000
12106 1 75.271 94.705 0.000
12107 1 76.691 94.705 0.000
12108 1 77.401 93.475 0.000
12109 3 77.401 93.475 -1.100
12110 1 78.821 93.475 0.000
12111 1 79.531 94.705 0.000
12112 1 80.951 94.705 0.000
12113 1 81.662 93.475 0.000
12114 1 83.082 93.475 0.000
12115 1 83.792 94.705 0.000
12116 1 85.212 94.705 0.000
12117 1 85.922 93.475 0.000
12118 3 85.922 93.475 -1.100
12119 1 87.342 93.475 0.000
12120 1 88.052 94.705 0.000
12121 1 89.473 94.705 0.000
12122 1 90.183 93.475 0.000
12123 1 91.603 93.475 0.000
12124 3 91.603 93.475 -1.100
12125 1 92.313 94.705 0.000
12126 1 93.733 94.705 0.000
12127 1 94.443 93.475 0.000
12128 1 95.864 93.475 0.000
12129 1 96.574 94.705 0.000
12130 1 97.994 94.705 0.000
12131 1 98.704 93.475 0.000
12132 1 100.124 93.475 0.000
12133 2 100.124 93.475 1.500
12134 3 101.224 93.475 1.633
12135 3 99.574 94.427 1.633
12136 3 99.574 92.522 1.633
12137 1 100.834 94.705 0.000
12138 1 102.254 94.705 0.000
12139 1 102.965 93.475 0.000
12140 1 104.385 93.475 0.000
12141 1 105.095 94.705 0.000
12142 1 106.515 94.705 0.000
12143 1 107.225 93.475 0.000
12144 1 108.645 93.475 0.000
12145 1 109.355 94.705 0.000
12146 1 110.776 94.705 0.000
12147 1 111.486 93.475 0.000
12148 2 111.486 93.475 1.500
12149 3 112.586 93.475 1.633
12150 3 110.936 94.427 1.633
12151 3 110.936 92.522 1.633
12152 1 112.906 93.475 0.000
12153 1 113.616 94.705 0.000
12154 1 115.036 94.705 0.000
12155 1 115.746 93.475 0.000
12156 1 117.167 93.475 0.000
12157 1 117.877 94.705 0.000
12158 1 119.297 94.705 0.000
12159 3 119.297 94.705 1.100
12160 1 120.007 93.475 0.000
12161 1 121.427 93.475 0.000
12162 1 122.137 94.705 0.000
12163 1 123.557 94.705 0.000
12164 1 124.267 93.475 0.000
12165 1 125.688 93.475 0.000
12166 1 126.398 94.705 0.000
12167 1 127.818 94.705 0.000
12168 1 128.528 93.475 0.000
12169 1 129.948 93.475 0.000
12170 1 130.658 94.705 0.000
12171 1 132.079 94.705 0.000
12172 1 132.789 93.475 0.000
12173 1 134.209 93.475 0.000
12174 1 134.919 94.705 0.000
12175 1 136.339 94.705 0.000
12176 1 137.049 93.475 0.000
12177 1 138.470 93.475 0.000
12178 2 138.470 93.475 1.500
12179 3 139.570 93.475 1.633
12180 3 137.919 94.427 1.633
12181 3 137.919 92.522 1.633
12182 1 139.180 94.705 0.000
12183 1 140.600 94.705 0.000
12184 1 141.310 93.475 0.000
12185 1 142.730 93.475 0.000
12186 1 143.440 94.705 0.000
12187 1 144.860 94.705 0.000
12188 1 145.571 93.475 0.000
12189 1 146.991 93.475 0.000
12190 1 147.701 94.705 0.000
12191 1 149.121 94.705 0.000
12192 1 149.831 93.475 0.000
12193 1 151.251 93.475 0.000
12194 3 151.251 93.475 1.100
12195 1 151.961 94.705 0.000
12196 1 153.382 94.705 0.000
12197 1 154.092 93.475 0.000
12198 1 155.512 93.475 0.000
12199 1 156.222 94.705 0.000
12200 3 156.222 94.705 -1.100
12201 1 157.642 94.705 0.000
12202 3 157.642 94.705 -1.100
12203 1 158.352 93.475 0.000
12204 1 159.773 93.475 0.000
12205 2 159.773 93.475 1.500
12206 3 160.873 93.475 1.633
12207 3 159.222 94.427 1.633
12208 3 159.222 92.522 1.633
12209 1 160.483 94.705 0.000
12210 1 161.903 94.705 0.000
12211 1 162.613 93.475 0.000
12212 1 164.033 93.475 0.000
12213 1 164.743 94.705 0.000
12214 1 166.163 94.705 0.000
12215 1 166.874 93.475 0.000
12216 1 168.294 93.475 0.000
12217 1 169.004 94.705 0.000
12218 3 169.004 94.705 1.100
12219 1 170.424 94.705 0.000
12220 1 171.134 93.475 0.000
12221 1 172.554 93.475 0.000
12222 1 173.264 94.705 0.000
12223 2 173.264 94.705 -1.500
12224 3 174.364 94.705 -1.633
12225 3 172.714 95.657 -1.633
12226 3 172.714 93.752 -1.633
12227 1 174.685 94.705 0.000
12228 1 175.395 93.475 0.000
12229 1 176.815 93.475 0.000
12230 1 177.525 94.705 0.000
12231 1 178.945 94.705 0.000
12232 1 179.655 93.475 0.000
12233 1 181.076 93.475 0.000
12234 1 181.786 94.705 0.000
12235 1 183.206 94.705 0.000
12236 1 183.916 93.475 0.000
12237 1 185.336 93.475 0.000
12238 1 186.046 94.705 0.000
12239 1 187.466 94.705 0.000
12240 2 187.466 94.705 -1.500
12241 3 188.566 94.705 -1.633
12242 3 186.916 95.657 -1.633
12243 3 186.916 93.752 -1.633
12244 1 188.177 93.475 0.000
12245 1 189.597 93.475 0.000
12246 1 190.307 94.705 0.000
12247 1 191.727 94.705 0.000
12248 1 192.437 93.475 0.000
12249 1 193.857 93.475 0.000
12250 1 194.567 94.705 0.000
12251 1 195.988 94.705 0.000
12252 1 196.698 93.475 0.000
12253 1 198.118 93.475 0.000
12254 1 198.828 94.705 0.000
12255 3 198.828 94.705 -1.100
12256 1 200.248 94.705 0.000
12257 1 200.958 93.475 0.000
12258 1 202.379 93.475 0.000
12259 1 203.089 94.705 0.000
12260 1 204.509 94.705 0.000
12261 1 205.219 93.475 0.000
12262 1 206.639 93.475 0.000
12263 1 207.349 94.705 0.000
12264 1 208.769 94.705 0.000
12265 1 209.480 93.475 0.000
12266 1 210.900 93.475 0.000
12267 1 211.610 94.705 0.000
12268 1 213.030 94.705 0.000
12269 2 213.030 94.705 -1.500
12270 3 214.130 94.705 -1.633
12271 3 212.480 95.657 -1.633
12272 3 212.480 93.752 -1.633
12273 1 213.740 93.475 0.000
12274 1 215.160 93.475 0.000
12275 1 215.870 94.705 0.000
12276 1 217.291 94.705 0.000
12277 1 218.001 93.475 0.000
12278 1 219.421 93.475 0.000
12279 1 220.131 94.705 0.000
12280 3 220.131 94.705 1.100
12281 1 221.551 94.705 0.000
12282 1 222.261 93.475 0.000
12283 1 223.681 93.475 0.000
12284 1 224.392 94.705 0.000
12285 1 225.812 94.705 0.000
12286 2 225.812 94.705 -1.500
12287 3 226.912 94.705 -1.633
12288 3 225.262 95.657 -1.633
12289 3 225.262 93.752 -1.633
12290 1 226.522 93.475 0.000
12291 1 227.942 93.475 0.000
12292 3 227.942 93.475 1.100
12293 1 228.652 94.705 0.000
12294 1 230.072 94.705 0.000
12295 1 230.783 93.475 0.000
12296 1 232.203 93.475 0.000
12297 1 232.913 94.705 0.000
12298 1 234.333 94.705 0.000
12299 1 235.043 93.475 0.000
12300 1 236.463 93.475 0.000
12301 1 237.173 94.705 0.000
12302 1 238.594 94.705 0.000
12303 1 239.304 93.475 0.000
12304 1 240.724 93.475 0.000
12305 1 241.434 94.705 0.000
12306 1 242.854 94.705 0.000
12307 1 243.564 93.475 0.000
12308 1 244.985 93.475 0.000
12309 1 245.695 94.705 0.000
12310 1 247.115 94.705 0.000
12311 1 247.825 93.475 0.000
12312 3 247.825 93.475 -1.100
12313 1 249.245 93.475 0.000
12314 2 249.245 93.475 1.500
12315 3 250.345 93.475 1.633
12316 3 248.695 94.427 1.633
12317 3 248.695 92.522 1.633
12318 1 249.955 94.705 0.000
12319 1 0.000 97.164 0.000
12320 1 0.710 95.934 0.000
12321 3 0.710 95.934 -1.100
12322 1 2.130 95.934 0.000
12323 1 2.840 97.164 0.000
12324 1 4.261 97.164 0.000
12325 1 4.971 95.934 0.000
12326 1 6.391 95.934 0.000
12327 1 7.101 97.164 0.000
12328 1 8.521 97.164 0.000
12329 3 8.521 97.164 1.100
12330 1 9.231 95.934 0.000
12331 1 10.652 95.934 0.000
12332 1 11.362 97.164 0.000
12333 1 12.782 97.164 0.000
12334 1 13.492 95.934 0.000
12335 1 14.912 95.934 0.000
12336 1 15.622 97.164 0.000
12337 1 17.042 97.164 0.000
12338 1 17.753 95.934 0.000
12339 1 19.173 95.934 0.000
12340 1 19.883 97.164 0.000
12341 1 21.303 97.164 0.000
12342 1 22.013 95.934 0.000
12343 1 23.433 95.934 0.000
12344 1 24.143 97.164 0.000
12345 1 25.564 97.164 0.000
12346 1 26.274 95.934 0.000
12347 1 27.694 95.934 0.000
12348 2 27.694 95.934 1.500
12349 3 28.794 95.934 1.633
12350 3 27.144 96.887 1.633
12351 3 27.144 94.982 1.633
12352 1 28.404 97.164 0.000
12353 1 29.824 97.164 0.000
12354 1 30.534 95.934 0.000
12355 1 31.954 95.934 0.000
12356 1 32.665 97.164 0.000
12357 1 34.085 97.164 0.000
12358 1 34.795 95.934 0.000
12359 1 36.215 95.934 0.000
12360 3 36.215 95.934 1.100
12361 1 36.925 97.164 0.000
12362 1 38.345 97.164 0.000
12363 1 39.055 95.934 0.000
12364 3 39.055 95.934 -1.100
12365 1 40.476 95.934 0.000
12366 1 41.186 97.164 0.000
12367 1 42.606 97.164 0.000
12368 1 43.316 95.934 0.000
12369 1 44.736 95.934 0.000
12370 1 45.446 97.164 0.000
12371 3 45.446 97.164 -1.100
12372 1 46.867 97.164 0.000
12373 2 46.867 97.164 1.500
12374 3 47.967 97.164 1.633
12375 3 46.317 98.117 1.633
12376 3 46.317 96.212 1.633
12377 1 47.577 95.934 0.000
12378 1 48.997 95.934 0.000
12379 1 49.707 97.164 0.000
12380 1 51.127 97.164 0.000
12381 1 51.837 95.934 0.000
12382 1 53.258 95.934 0.000
12383 1 53.968 97.164 0.000
12384 1 55.388 97.164 0.000
12385 1 56.098 95.934 0.000
12386 3 56.098 95.934 -1.100
12387 1 57.518 95.934 0.000
12388 1 58.228 97.164 0.000
12389 2 58.228 97.164 -1.500
12390 3 59.328 97.164 -1.633
12391 3 57.678 98.117 -1.633
12392 3 57.678 96.212 -1.633
12393 1 59.648 97.164 0.000
12394 1 60.358 95.934 0.000
12395 1 61.779 95.934 0.000
12396 1 62.489 97.164 0.000
12397 1 63.909 97.164 0.000
12398 1 64.619 95.934 0.000
12399 2 64.619 95.934 1.500
12400 3 65.719 95.934 1.633
12401 3 64.069 96.887 1.633
12402 3 64.069 94.982 1.633
12403 1 66.039 95.934 0.000
12404 1 66.749 97.164 0.000
12405 1 68.170 97.164 0.000
12406 1 68.880 95.934 0.000
12407 1 70.300 95.934 0.000
12408 1 71.010 97.164 0.000
12409 1 72.430 97.164 0.000
12410 1 73.140 95.934 0.000
12411 1 74.561 95.934 0.000
12412 3 74.561 95.934 1.100
12413 1 75.271 97.164 0.000
12414 1 76.691 97.164 0.000
12415 1 77.401 95.934 0.000
12416 1 78.821 95.934 0.000
12417 1 79.531 97.164 0.000
12418 1 80.951 97.164 0.000
12419 1 81.662 95.934 0.000
12420 1 83.082 95.934 0.000
12421 3 83.082 95.934 -1.100
12422 1 83.792 97.164 0.000
12423 1 85.212 97.164 0.000
12424 1 85.922 95.934 0.000
12425 1 87.342 95.934 0.000
12426 2 87.342 95.934 -1.500
12427 3 88.442 95.934 -1.633
12428 3 86.792 96.887 -1.633
12429 3 86.792 94.982 -1.633
12430 1 88.052 97.164 0.000
12431 1 89.473 97.164 0.000
12432 1 90.183 95.934 0.000
12433 1 91.603 95.934 0.000
12434 1 92.313 97.164 0.000
12435 1 93.733 97.164 0.000
12436 1 94.443 95.934 0.000
12437 1 95.864 95.934 0.000
12438 1 96.574 97.164 0.000
12439 1 97.994 97.164 0.000
12440 1 98.704 95.934 0.000
12441 1 100.124 95.934 0.000
12442 1 100.834 97.164 0.000
12443 1 102.254 97.164 0.000
12444 1 102.965 95.934 0.000
12445 1 104.385 95.934 0.000
12446 3 104.385 95.934 1.100
12447 1 105.095 97.164 0.000
12448 1 106.515 97.164 0.000
12449 1 107.225 95.934 0.000
12450 1 108.645 95.934 0.000
12451 1 109.355 97.164 0.000
12452 1 110.776 97.164 0.000
12453 1 111.486 95.934 0.000
12454 3 111.486 95.934 1.100
12455 1 112.906 95.934 0.000
12456 1 113.616 97.164 0.000
12457 1 115.036 97.164 0.000
12458 1 115.746 95.934 0.000
12459 1 117.167 95.934 0.000
12460 1 117.877 97.164 0.000
12461 1 119.297 97.164 0.000
12462 1 120.007 95.934 0.000
12463 1 121.427 95.934 0.000
12464 1 122.137 97.164 0.000
12465 1 123.557 97.164 0.000
12466 1 124.267 95.934 0.000
12467 1 125.688 95.934 0.000
12468 3 125.688 95.934 1.100
12469 1 126.398 97.164 0.000
12470 1 127.818 97.164 0.000
12471 1 128.528 95.934 0.000
12472 1 129.948 95.934 0.000
12473 1 130.658 97.164 0.000
12474 1 132.079 97.164 0.000
12475 1 132.789 95.934 0.000
12476 2 132.789 95.934 -1.500
12477 3 133.889 95.934 -1.633
12478 3 132.239 96.887 -1.633
12479 3 132.239 94.982 -1.633
12480 1 134.209 95.934 0.000
12481 1 134.919 97.164 0.000
12482 1 136.339 97.164 0.000
12483 1 137.049 95.934 0.000
12484 1 138.470 95.934 0.000
12485 3 138.470 95.934 -1.100
12486 1 139.180 97.164 0.000
12487 1 140.600 97.164 0.000
12488 1 141.310 95.934 0.000
12489 2 141.310 95.934 -1.500
12490 3 142.410 95.934 -1.633
12491 3 140.760 96.887 -1.633
12492 3 140.760 94.982 -1.633
12493 1 142.730 95.934 0.000
12494 1 143.440 97.164 0.000
12495 3 143.440 97.164 -1.100
12496 1 144.860 97.164 0.000
12497 1 145.571 95.934 0.000
12498 1 146.991 95.934 0.000
12499 1 147.701 97.164 0.000
12500 1 149.121 97.164 0.000
12501 1 149.831 95.934 0.000
12502 1 151.251 95.934 0.000
12503 1 151.961 97.164 0.000
12504 1 153.382 97.164 0.000
12505 1 154.092 95.934 0.000
12506 1 155.512 95.934 0.000
12507 3 155.512 95.934 -1.100
12508 1 156.222 97.164 0.000
12509 1 157.642 97.164 0.000
12510 1 158.352 95.934 0.000
12511 1 159.773 95.934 0.000
12512 3 159.773 95.934 1.100
12513 1 160.483 97.164 0.000
12514 1 161.903 97.164 0.000
12515 1 162.613 95.934 0.000
12516 1 164.033 95.934 0.000
12517 3 164.033 95.934 -1.100
12518 1 164.743 97.164 0.000
12519 1 166.163 97.164 0.000
12520 1 166.874 95.934 0.000
12521 1 168.294 95.934 0.000
12522 1 169.004 97.164 0.000
12523 1 170.424 97.164 0.000
12524 1 171.134 95.934 0.000
12525 1 172.554 95.934 0.000
12526 1 173.264 97.164 0.000
12527 1 174.685 97.164 0.000
12528 1 175.395 95.934 0.000
12529 1 176.815 95.934 0.000
12530 1 177.525 97.164 0.000
12531 1 178.945 97.164 0.000
12532 1 179.655 95.934 0.000
12533 2 179.655 95.934 1.500
12534 3 180.755 95.934 1.633
12535 3 179.105 96.887 1.633
12536 3 179.105 94.982 1.633
12537 1 181.076 95.934 0.000
12538 1 181.786 97.164 0.000
12539 1 183.206 97.164 0.000
12540 1 183.916 95.934 0.000
12541 2 183.916 95.934 1.500
12542 3 185.016 95.934 1.633
12543 3 183.366 96.887 1.633
12544 3 183.366 94.982 1.633
12545 1 185.336 95.934 0.000
12546 1 186.046 97.164 0.000
12547 1 187.466 97.164 0.000
12548 1 188.177 95.934 0.000
12549 1 189.597 95.934 0.000
12550 3 189.597 95.934 -1.100
12551 1 190.307 97.164 0.000
12552 1 191.727 97.164 0.000
12553 1 192.437 95.934 0.000
12554 3 192.437 95.934 -1.100
12555 1 193.857 95.934 0.000
12556 1 194.567 97.164 0.000
12557 1 195.988 97.164 0.000
12558 2 195.988 97.164 1.500
12559 3 197.088 97.164 1.633
12560 3 195.438 98.117 1.633
12561 3 195.438 96.212 1.633
12562 1 196.698 95.934 0.000
12563 1 198.118 95.934 0.000
12564 1 198.828 97.164 0.000
12565 1 200.248 97.164 0.000
12566 1 200.958 95.934 0.000
12567 1 202.379 95.934 0.000
12568 1 203.089 97.164 0.000
12569 2 203.089 97.164 1.500
12570 3 204.189 97.164 1.633
12571 3 202.539 98.117 1.633
12572 3 202.539 96.212 1.633
12573 1 204.509 97.164 0.000
12574 1 205.219 95.934 0.000
12575 1 206.639 95.934 0.000
12576 1 207.349 97.164 0.000
12577 1 208.769 97.164 0.000
12578 1 209.480 95.934 0.000
12579 1 210.900 95.934 0.000
12580 3 210.900 95.934 1.100
12581 1 211.610 97.164 0.000
12582 1 213.030 97.164 0.000
12583 1 213.740 95.934 0.000
12584 1 215.160 95.934 0.000
12585 1 215.870 97.164 0.000
12586 1 217.291 97.164 0.000
12587 3 217.291 97.164 1.100
12588 1 218.001 95.934 0.000
12589 1 219.421 95.934 0.000
12590 1 220.131 97.164 0.000
12591 1 221.551 97.164 0.000
12592 1 222.261 95.934 0.000
12593 1 223.681 95.934 0.000
12594 1 224.392 97.164 0.000
12595 1 225.812 97.164 0.000
12596 1 226.522 95.934 0.000
12597 1 227.942 95.934 0.000
12598 1 228.652 97.164 0.000
12599 1 230.072 97.164 0.000
12600 1 230.783 95.934 0.000
12601 1 232.203 95.934 0.000
12602 1 232.913 97.164 0.000
12603 1 234.333 97.164 0.000
12604 1 235.043 95.934 0.000
12605 1 236.463 95.934 0.000
12606 1 237.173 97.164 0.000
12607 1 238.594 97.164 0.000
12608 1 239.304 95.934 0.000
12609 1 240.724 95.934 0.000
12610 1 241.434 97.164 0.000
12611 1 242.854 97.164 0.000
12612 3 242.854 97.164 -1.100
12613 1 243.564 95.934 0.000
12614 1 244.985 95.934 0.000
12615 1 245.695 97.164 0.000
12616 1 247.115 97.164 0.000
12617 1 247.825 95.934 0.000
12618 1 249.245 95.934 0.000
12619 3 249.245 95.934 -1.100
12620 1 249.955 97.164 0.000
12621 3 249.955 97.164 -1.100
12622 1 0.000 99.624 0.000
12623 1 0.710 98.394 0.000
12624 1 2.130 98.394 0.000
12625 1 2.840 99.624 0.000
12626 2 2.840 99.624 1.500
12627 3 3.940 99.624 1.633
12628 3 2.290 100.577 1.633
12629 3 2.290 98.672 1.633
12630 1 4.261 99.624 0.000
12631 1 4.971 98.394 0.000
12632 3 4.971 98.394 1.100
12633 1 6.391 98.394 0.000
12634 1 7.101 99.624 0.000
12635 1 8.521 99.624 0.000
12636 1 9.231 98.394 0.000
12637 1 10.652 98.394 0.000
12638 1 11.362 99.624 0.000
12639 1 12.782 99.624 0.000
12640 2 12.782 99.624 1.500
12641 3 13.882 99.624 1.633
12642 3 12.232 100.577 1.633
12643 3 12.232 98.672 1.633
12644 1 13.492 98.394 0.000
12645 1 14.912 98.394 0.000
12646 1 15.622 99.624 0.000
12647 3 15.622 99.624 -1.100
12648 1 17.042 99.624 0.000
12649 1 17.753 98.394 0.000
12650 1 19.173 98.394 0.000
12651 1 19.883 99.624 0.000
12652 1 21.303 99.624 0.000
12653 3 21.303 99.624 1.100
12654 1 22.013 98.394 0.000
12655 1 23.433 98.394 0.000
12656 1 24.143 99.624 0.000
12657 1 25.564 99.624 0.000
12658 1 26.274 98.394 0.000
12659 1 27.694 98.394 0.000
12660 1 28.404 99.624 0.000
12661 2 28.404 99.624 -1.500
12662 3 29.504 99.624 -1.633
12663 3 27.854 100.577 -1.633
12664 3 27.854 98.672 -1.633
12665 1 29.824 99.624 0.000
12666 1 30.534 98.394 0.000
12667 1 31.954 98.394 0.000
12668 2 31.954 98.394 1.500
12669 3 33.054 98.394 1.633
12670 3 31.404 99.347 1.633
12671 3 31.404 97.442 1.633
12672 1 32.665 99.624 0.000
12673 1 34.085 99.624 0.000
12674 1 34.795 98.394 0.000
12675 1 36.215 98.394 0.000
12676 1 36.925 99.624 0.000
12677 1 38.345 99.624 0.000
12678 1 39.055 98.394 0.000
12679 1 40.476 98.394 0.000
12680 1 41.186 99.624 0.000
12681 1 42.606 99.624 0.000
12682 1 43.316 98.394 0.000
12683 3 43.316 98.394 -1.100
12684 1 44.736 98.394 0.000
12685 1 45.446 99.624 0.000
12686 1 46.867 99.624 0.000
12687 1 47.577 98.394 0.000
12688 1 48.997 98.394 0.000
12689 1 49.707 99.624 0.000
12690 1 51.127 99.624 0.000
12691 1 51.837 98.394 0.000
12692 1 53.258 98.394 0.000
12693 1 53.968 99.624 0.000
12694 1 55.388 99.624 0.000
12695 1 56.098 98.394 0.000
12696 3 56.098 98.394 -1.100
12697 1 57.518 98.394 0.000
12698 1 58.228 99.624 0.000
12699 1 59.648 99.624 0.000
12700 1 60.358 98.394 0.000
12701 1 61.779 98.394 0.000
12702 1 62.489 99.624 0.000
12703 1 63.909 99.624 0.000
12704 1 64.619 98.394 0.000
12705 1 66.039 98.394 0.000
12706 1 66.749 99.624 0.000
12707 1 68.170 99.624 0.000
12708 2 68.170 99.624 1.500
12709 3 69.270 99.624 1.633
12710 3 67.620 100.577 1.633
12711 3 67.620 98.672 1.633
12712 1 68.880 98.394 0.000
12713 1 70.300 98.394 0.000
12714 1 71.010 99.624 0.000
12715 2 71.010 99.624 -1.500
12716 3 72.110 99.624 -1.633
12717 3 70.460 100.577 -1.633
12718 3 70.460 98.672 -1.633
12719 1 72.430 99.624 0.000
12720 1 73.140 98.394 0.000
12721 1 74.561 98.394 0.000
12722 1 75.271 99.624 0.000
12723 1 76.691 99.624 0.000
12724 1 77.401 98.394 0.000
12725 1 78.821 98.394 0.000
12726 1 79.531 99.624 0.000
12727 2 79.531 99.624 -1.500
12728 3 80.631 99.624 -1.633
12729 3 78.981 100.577 -1.633
12730 3 78.981 98.672 -1.633
12731 1 80.951 99.624 0.000
12732 1 81.662 98.394 0.000
12733 1 83.082 98.394 0.000
12734 1 83.792 99.624 0.000
12735 1 85.212 99.624 0.000
12736 1 85.922 98.394 0.000
12737 1 87.342 98.394 0.000
12738 1 88.052 99.624 0.000
12739 2 88.052 99.624 1.500
12740 3 89.152 99.624 1.633
12741 3 87.502 100.577 1.633
12742 3 87.502 98.672 1.633
12743 1 89.473 99.624 0.000
12744 1 90.183 98.394 0.000
12745 1 91.603 98.394 0.000
12746 1 92.313 99.624 0.000
12747 1 93.733 99.624 0.000
12748 3 93.733 99.624 -1.100
12749 1 94.443 98.394 0.000
12750 1 95.864 98.394 0.000
12751 1 96.574 99.624 0.000
12752 1 97.994 99.624 0.000
12753 3 97.994 99.624 1.100
12754 1 98.704 98.394 0.000
12755 1 100.124 98.394 0.000
12756 1 100.834 99.624 0.000
12757 1 102.254 99.624 0.000
12758 1 102.965 98.394 0.000
12759 1 104.385 98.394 0.000
12760 1 105.095 99.624 0.000
12761 1 106.515 99.624 0.000
12762 1 107.225 98.394 0.000
12763 3 107.225 98.394 1.100
12764 1 108.645 98.394 0.000
12765 1 109.355 99.624 0.000
12766 3 109.355 99.624 -1.100
12767 1 110.776 99.624 0.000
12768 1 111.486 98.394 0.000
12769 1 112.906 98.394 0.000
12770 1 113.616 99.624 0.000
12771 1 115.036 99.624 0.000
12772 2 115.036 99.624 -1.500
12773 3 116.136 99.624 -1.633
12774 3 114.486 100.577 -1.633
12775 3 114.486 98.672 -1.633
12776 1 115.746 98.394 0.000
12777 3 115.746 98.394 1.100
12778 1 117.167 98.394 0.000
12779 1 117.877 99.624 0.000
12780 1 119.297 99.624 0.000
12781 1 120.007 98.394 0.000
12782 1 121.427 98.394 0.000
12783 2 121.427 98.394 -1.500
12784 3 122.527 98.394 -1.633
12785 3 120.877 99.347 -1.633
12786 3 120.877 97.442 -1.633
12787 1 122.137 99.624 0.000
12788 1 123.557 99.624 0.000
12789 1 124.267 98.394 0.000
12790 3 124.267 98.394 1.100
12791 1 125.688 98.394 0.000
12792 1 126.398 99.624 0.000
12793 1 127.818 99.624 0.000
12794 1 128.528 98.394 0.000
12795 1 129.948 98.394 0.000
12796 1 130.658 99.624 0.000
12797 1 132.079 99.624 0.000
12798 1 132.789 98.394 0.000
12799 1 134.209 98.394 0.000
12800 1 134.919 99.624 0.000
12801 1 136.339 99.624 0.000
12802 1 137.049 98.394 0.000
12803 3 137.049 98.394 -1.100
12804 1 138.470 98.394 0.000
12805 1 139.180 99.624 0.000
12806 1 140.600 99.624 0.000
12807 1 141.310 98.394 0.000
12808 1 142.730 98.394 0.000
12809 1 143.440 99.624 0.000
12810 1 144.860 99.624 0.000
12811 1 145.571 98.394 0.000
12812 1 146.991 98.394 0.000
12813 1 147.701 99.624 0.000
12814 1 149.121 99.624 0.000
12815 1 149.831 98.394 0.000
12816 3 149.831 98.394 1.100
12817 1 151.251 98.394 0.000
12818 1 151.961 99.624 0.000
12819 1 153.382 99.624 0.000
12820 3 153.382 99.624 1.100
12821 1 154.092 98.394 0.000
12822 1 155.512 98.394 0.000
12823 1 156.222 99.624 0.000
12824 1 157.642 99.624 0.000
12825 1 158.352 98.394 0.000
12826 1 159.773 98.394 0.000
12827 1 160.483 99.624 0.000
12828 1 161.903 99.624 0.000
12829 1 162.613 98.394 0.000
12830 1 164.033 98.394 0.000
12831 1 164.743 99.624 0.000
12832 1 166.163 99.624 0.000
12833 1 166.874 98.394 0.000
12834 1 168.294 98.394 0.000
12835 1 169.004 99.624 0.000
12836 1 170.424 99.624 0.000
12837 1 171.134 98.394 0.000
12838 1 172.554 98.394 0.000
12839 1 173.264 99.624 0.000
12840 3 173.264 99.624 -1.100
12841 1 174.685 99.624 0.000
12842 1 175.395 98.394 0.000
12843 3 175.395 98.394 -1.100
12844 1 176.815 98.394 0.000
12845 1 177.525 99.624 0.000
12846 1 178.945 99.624 0.000
12847 3 178.945 99.624 1.100
12848 1 179.655 98.394 0.000
12849 1 181.076 98.394 0.000
12850 1 181.786 99.624 0.000
12851 1 183.206 99.624 0.000
12852 1 183.916 98.394 0.000
12853 1 185.336 98.394 0.000
12854 1 186.046 99.624 0.000
12855 1 187.466 99.624 0.000
12856 1 188.177 98.394 0.000
12857 1 189.597 98.394 0.000
12858 1 190.307 99.624 0.000
12859 1 191.727 99.624 0.000
12860 1 192.437 98.394 0.000
12861 1 193.857 98.394 0.000
12862 1 194.567 99.624 0.000
12863 1 195.988 99.624 0.000
12864 1 196.698 98.394 0.000
12865 1 198.118 98.394 0.000
12866 1 198.828 99.624 0.000
12867 1 200.248 99.624 0.000
12868 1 200.958 98.394 0.000
12869 1 202.379 98.394 0.000
12870 1 203.089 99.624 0.000
12871 1 204.509 99.624 0.000
12872 1 205.219 98.394 0.000
12873 1 206.639 98.394 0.000
12874 1 207.349 99.624 0.000
12875 1 208.769 99.624 0.000
12876 1 209.480 98.394 0.000
12877 1 210.900 98.394 0.000
12878 1 211.610 99.624 0.000
12879 1 213.030 99.624 0.000
12880 1 213.740 98.394 0.000
12881 2 213.740 98.394 1.500
12882 3 214.840 98.394 1.633
12883 3 213.190 99.347 1.633
12884 3 213.190 97.442 1.633
12885 1 215.160 98.394 0.000
12886 1 215.870 99.624 0.000
12887 1 217.291 99.624 0.000
12888 1 218.001 98.394 0.000
12889 2 218.001 98.394 -1.500
12890 3 219.101 98.394 -1.633
12891 3 217.451 99.347 -1.633
12892 3 217.451 97.442 -1.633
12893 1 219.421 98.394 0.000
12894 1 220.131 99.624 0.000
12895 2 220.131 99.624 1.500
12896 3 221.231 99.624 1.633
12897 3 219.581 100.577 1.633
12898 3 219.581 98.672 1.633
12899 1 221.551 99.624 0.000
12900 1 222.261 98.394 0.000
12901 1 223.681 98.394 0.000
12902 1 224.392 99.624 0.000
12903 3 224.392 99.624 -1.100
12904 1 225.812 99.624 0.000
12905 1 226.522 98.394 0.000
12906 1 227.942 98.394 0.000
12907 1 228.652 99.624 0.000
12908 1 230.072 99.624 0.000
12909 1 230.783 98.394 0.000
12910 1 232.203 98.394 0.000
12911 3 232.203 98.394 1.100
12912 1 232.913 99.624 0.000
12913 1 234.333 99.624 0.000
12914 1 235.043 98.394 0.000
12915 1 236.463 98.394 0.000
12916 1 237.173 99.624 0.000
12917 1 238.594 99.624 0.000
12918 2 238.594 99.624 1.500
12919 3 239.694 99.624 1.633
12920 3 238.044 100.577 1.633
12921 3 238.044 98.672 1.633
12922 1 239.304 98.394 0.000
12923 1 240.724 98.394 0.000
12924 1 241.434 99.624 0.000
12925 3 241.434 99.624 1.100
12926 1 242.854 99.624 0.000
12927 1 243.564 98.394 0.000
12928 1 244.985 98.394 0.000
12929 2 244.985 98.394 1.500
12930 3 246.085 98.394 1.633
12931 3 244.435 99.347 1.633
12932 3 244.435 97.442 1.633
12933 1 245.695 99.624 0.000
12934 1 247.115 99.624 0.000
12935 3 247.115 99.624 -1.100
12936 1 247.825 98.394 0.000
12937 1 249.245 98.394 0.000
12938 3 249.245 98.394 1.100
12939 1 249.955 99.624 0.000
